 vasp.5.4.4.18Apr17-6-g9f103f2a35 (build Mar 08 2022 14:55:45) complex

 executed on             LinuxIFC date 2024.04.05  13:14:53

 INCAR:
 POTCAR:    PW_PBE Au 04Oct2007

 POTCAR:    PW_PBE Au 04Oct2007
   VRHFIN =Au: s1d10

   TITEL  = PAW_PBE Au 04Oct2007
   POMASS =  196.966; ZVAL   =   11.000    mass and valenz
   ENMAX  =  229.943; ENMIN  =  172.457 eV

  PW_PBE Au 04Oct2007                   :

 POSCAR: Au1
  positions in direct lattice
  velocities in cartesian coordinates
 exchange correlation table for  LEXCH =        8
   RHO(1)=    0.500       N(1)  =     2000
   RHO(2)=  100.500       N(2)  =     4000

 ion  position               nearest neighbor table
   1  0.000  0.000  0.000-

  LATTYP: Found a face centered cubic cell.
 ALAT       =     4.1712884904

  Lattice vectors:

 A1 = (   0.0000000000,   2.0856442452,   2.0856442452)
 A2 = (   2.0856442452,   0.0000000000,   2.0856442452)
 A3 = (   2.0856442452,   2.0856442452,   0.0000000000)

Analysis of symmetry for initial positions (statically):
 Subroutine PRICEL returns:
 Original cell was already a primitive cell.

 Routine SETGRP: Setting up the symmetry group for a
 face centered cubic supercell.

 Subroutine GETGRP returns: Found 48 space group operations
 (whereof 48 operations were pure point group operations)
 out of a pool of 48 trial point group operations.

The static configuration has the point symmetry O_h .

Analysis of symmetry for dynamics (positions and initial velocities):
 Subroutine PRICEL returns:
 Original cell was already a primitive cell.

[...]

The dynamic configuration has the point symmetry O_h .

Analysis of structural, dynamic, and magnetic symmetry:
 Subroutine PRICEL returns:
 Original cell was already a primitive cell.

 Routine SETGRP: Setting up the symmetry group for a
 face centered cubic supercell.

 Subroutine GETGRP returns: Found 48 space group operations
 (whereof 48 operations were pure point group operations)
 out of a pool of 48 trial point group operations.

The (compounded) configuration has the point symmetry O_h .

 Subroutine INISYM returns: Found 48 space group operations
 (whereof 48 operations are pure point group operations),
 and found     1 'primitive' translations

 KPOINTS: Automatic mesh

Automatic generation of k-mesh.
Space group operators:
 irot       det(A)        alpha          n_x          n_y          n_z        tau_x        tau_y        tau_z
    1     1.000000     0.000000     1.000000     0.000000     0.000000     0.000000     0.000000     0.000000
    2    -1.000000     0.000000     1.000000     0.000000     0.000000     0.000000     0.000000     0.000000
    3     1.000000   120.000000    -0.577350    -0.577350    -0.577350     0.000000     0.000000     0.000000
    4    -1.000000   120.000000    -0.577350    -0.577350    -0.577350     0.000000     0.000000     0.000000
    5     1.000000   120.000000     0.577350     0.577350     0.577350     0.000000     0.000000     0.000000
    6    -1.000000   120.000000     0.577350     0.577350     0.577350     0.000000     0.000000     0.000000
    7     1.000000    90.000000     0.000000     0.000000    -1.000000     0.000000     0.000000     0.000000
    8    -1.000000    90.000000     0.000000     0.000000    -1.000000     0.000000     0.000000     0.000000
    9     1.000000   180.000000     0.000000     0.707107     0.707107     0.000000     0.000000     0.000000
   10    -1.000000   180.000000     0.000000     0.707107     0.707107     0.000000     0.000000     0.000000
   11     1.000000    90.000000     0.000000     1.000000     0.000000     0.000000     0.000000     0.000000
   12    -1.000000    90.000000     0.000000     1.000000     0.000000     0.000000     0.000000     0.000000
   13     1.000000   180.000000     0.000000     0.000000     1.000000     0.000000     0.000000     0.000000
   14    -1.000000   180.000000     0.000000     0.000000     1.000000     0.000000     0.000000     0.000000
   15     1.000000   120.000000    -0.577350     0.577350     0.577350     0.000000     0.000000     0.000000
   16    -1.000000   120.000000    -0.577350     0.577350     0.577350     0.000000     0.000000     0.000000
   17     1.000000   120.000000    -0.577350     0.577350    -0.577350     0.000000     0.000000     0.000000
   18    -1.000000   120.000000    -0.577350     0.577350    -0.577350     0.000000     0.000000     0.000000
   19     1.000000    90.000000     0.000000     0.000000     1.000000     0.000000     0.000000     0.000000
   20    -1.000000    90.000000     0.000000     0.000000     1.000000     0.000000     0.000000     0.000000
   21     1.000000    90.000000    -1.000000     0.000000     0.000000     0.000000     0.000000     0.000000
   22    -1.000000    90.000000    -1.000000     0.000000     0.000000     0.000000     0.000000     0.000000
   23     1.000000   180.000000     0.707107     0.000000     0.707107     0.000000     0.000000     0.000000
   24    -1.000000   180.000000     0.707107     0.000000     0.707107     0.000000     0.000000     0.000000
   25     1.000000   120.000000     0.577350    -0.577350     0.577350     0.000000     0.000000     0.000000
   26    -1.000000   120.000000     0.577350    -0.577350     0.577350     0.000000     0.000000     0.000000
   27     1.000000   120.000000    -0.577350    -0.577350     0.577350     0.000000     0.000000     0.000000
   28    -1.000000   120.000000    -0.577350    -0.577350     0.577350     0.000000     0.000000     0.000000
   29     1.000000   180.000000     1.000000     0.000000     0.000000     0.000000     0.000000     0.000000
   30    -1.000000   180.000000     1.000000     0.000000     0.000000     0.000000     0.000000     0.000000
   31     1.000000    90.000000     0.000000    -1.000000     0.000000     0.000000     0.000000     0.000000
   32    -1.000000    90.000000     0.000000    -1.000000     0.000000     0.000000     0.000000     0.000000
   33     1.000000   180.000000     0.707107     0.707107     0.000000     0.000000     0.000000     0.000000
   34    -1.000000   180.000000     0.707107     0.707107     0.000000     0.000000     0.000000     0.000000
   35     1.000000    90.000000     1.000000     0.000000     0.000000     0.000000     0.000000     0.000000
   36    -1.000000    90.000000     1.000000     0.000000     0.000000     0.000000     0.000000     0.000000
   37     1.000000   120.000000     0.577350    -0.577350    -0.577350     0.000000     0.000000     0.000000
   38    -1.000000   120.000000     0.577350    -0.577350    -0.577350     0.000000     0.000000     0.000000
   39     1.000000   180.000000     0.000000     1.000000     0.000000     0.000000     0.000000     0.000000
   40    -1.000000   180.000000     0.000000     1.000000     0.000000     0.000000     0.000000     0.000000
   41     1.000000   120.000000     0.577350     0.577350    -0.577350     0.000000     0.000000     0.000000
   42    -1.000000   120.000000     0.577350     0.577350    -0.577350     0.000000     0.000000     0.000000
   43     1.000000   180.000000     0.000000    -0.707107     0.707107     0.000000     0.000000     0.000000
   44    -1.000000   180.000000     0.000000    -0.707107     0.707107     0.000000     0.000000     0.000000
   45     1.000000   180.000000     0.707107    -0.707107     0.000000     0.000000     0.000000     0.000000
   46    -1.000000   180.000000     0.707107    -0.707107     0.000000     0.000000     0.000000     0.000000
   47     1.000000   180.000000     0.707107     0.000000    -0.707107     0.000000     0.000000     0.000000
   48    -1.000000   180.000000     0.707107     0.000000    -0.707107     0.000000     0.000000     0.000000

 Subroutine IBZKPT returns following result:

 Found    120 irreducible k-points:

 Following reciprocal coordinates:
            Coordinates               Weight
  0.000000  0.000000  0.000000      1.000000
  0.066667  0.000000  0.000000      8.000000
  0.133333  0.000000  0.000000      8.000000
  0.200000  0.000000  0.000000      8.000000
  0.266667  0.000000  0.000000      8.000000
  0.333333  0.000000  0.000000      8.000000
  0.400000  0.000000  0.000000      8.000000
  0.466667  0.000000  0.000000      8.000000
  0.066667  0.066667  0.000000      6.000000
  0.133333  0.066667  0.000000     24.000000
  0.200000  0.066667  0.000000     24.000000
  0.266667  0.066667  0.000000     24.000000
  0.333333  0.066667  0.000000     24.000000
  0.400000  0.066667  0.000000     24.000000
  0.466667  0.066667  0.000000     24.000000
 -0.466667  0.066667  0.000000     24.000000
 -0.400000  0.066667  0.000000     24.000000
 -0.333333  0.066667  0.000000     24.000000
 -0.266667  0.066667  0.000000     24.000000
 -0.200000  0.066667  0.000000     24.000000
 -0.133333  0.066667  0.000000     24.000000
 -0.066667  0.066667  0.000000     12.000000
  0.133333  0.133333  0.000000      6.000000
  0.200000  0.133333  0.000000     24.000000
  0.266667  0.133333  0.000000     24.000000
  0.333333  0.133333  0.000000     24.000000
  0.400000  0.133333  0.000000     24.000000
  0.466667  0.133333  0.000000     24.000000
 -0.466667  0.133333  0.000000     24.000000
 -0.400000  0.133333  0.000000     24.000000
 -0.333333  0.133333  0.000000     24.000000
 -0.266667  0.133333  0.000000     24.000000
 -0.200000  0.133333  0.000000     24.000000
 -0.133333  0.133333  0.000000     12.000000
  0.200000  0.200000  0.000000      6.000000
  0.266667  0.200000  0.000000     24.000000
  0.333333  0.200000  0.000000     24.000000
  0.400000  0.200000  0.000000     24.000000
  0.466667  0.200000  0.000000     24.000000
 -0.466667  0.200000  0.000000     24.000000
 -0.400000  0.200000  0.000000     24.000000
 -0.333333  0.200000  0.000000     24.000000
 -0.266667  0.200000  0.000000     24.000000
 -0.200000  0.200000  0.000000     12.000000
  0.266667  0.266667  0.000000      6.000000
  0.333333  0.266667  0.000000     24.000000
  0.400000  0.266667  0.000000     24.000000
  0.466667  0.266667  0.000000     24.000000
 -0.466667  0.266667  0.000000     24.000000
 -0.400000  0.266667  0.000000     24.000000
 -0.333333  0.266667  0.000000     24.000000
 -0.266667  0.266667  0.000000     12.000000
  0.333333  0.333333  0.000000      6.000000
  0.400000  0.333333  0.000000     24.000000
  0.466667  0.333333  0.000000     24.000000
 -0.466667  0.333333  0.000000     24.000000
 -0.400000  0.333333  0.000000     24.000000
 -0.333333  0.333333  0.000000     12.000000
  0.400000  0.400000  0.000000      6.000000
  0.466667  0.400000  0.000000     24.000000
[...]
 -0.466667  0.333333  0.133333     48.000000
 -0.400000  0.333333  0.133333     48.000000
 -0.333333  0.333333  0.133333     48.000000
 -0.266667  0.333333  0.133333     48.000000
 -0.200000  0.333333  0.133333     24.000000
 -0.466667  0.400000  0.133333     24.000000
 -0.400000  0.400000  0.133333     48.000000
 -0.333333  0.400000  0.133333     48.000000
 -0.266667  0.400000  0.133333     24.000000
 -0.400000  0.466667  0.133333     24.000000
 -0.333333  0.466667  0.133333     24.000000
 -0.400000  0.400000  0.200000     24.000000
 -0.333333  0.400000  0.200000     48.000000
 -0.333333  0.466667  0.200000     24.000000
[...]
 k-point  8 :   0.4667 0.0000 0.0000  plane waves:    1196
 k-point  9 :   0.0667 0.0667 0.0000  plane waves:    1202
 k-point 10 :   0.1333 0.0667 0.0000  plane waves:    1194
 k-point 11 :   0.2000 0.0667 0.0000  plane waves:    1184
 k-point 12 :   0.2667 0.0667 0.0000  plane waves:    1194
 k-point 13 :   0.3333 0.0667 0.0000  plane waves:    1208
 k-point 14 :   0.4000 0.0667 0.0000  plane waves:    1204
 k-point 15 :   0.4667 0.0667 0.0000  plane waves:    1204
 k-point 16 :  -0.4667 0.0667 0.0000  plane waves:    1204
 k-point 17 :  -0.4000 0.0667 0.0000  plane waves:    1210
 k-point 18 :  -0.3333 0.0667 0.0000  plane waves:    1214
 k-point 19 :  -0.2667 0.0667 0.0000  plane waves:    1210
 k-point 20 :  -0.2000 0.0667 0.0000  plane waves:    1196
 k-point 21 :  -0.1333 0.0667 0.0000  plane waves:    1186
 k-point 22 :  -0.0667 0.0667 0.0000  plane waves:    1192
 k-point 23 :   0.1333 0.1333 0.0000  plane waves:    1194
 k-point 24 :   0.2000 0.1333 0.0000  plane waves:    1176
 k-point 25 :   0.2667 0.1333 0.0000  plane waves:    1204
 k-point 26 :   0.3333 0.1333 0.0000  plane waves:    1208
 k-point 27 :   0.4000 0.1333 0.0000  plane waves:    1210
 k-point 28 :   0.4667 0.1333 0.0000  plane waves:    1204
 k-point 29 :  -0.4667 0.1333 0.0000  plane waves:    1208
 k-point 30 :  -0.4000 0.1333 0.0000  plane waves:    1204
 k-point 31 :  -0.3333 0.1333 0.0000  plane waves:    1216
 k-point 32 :  -0.2667 0.1333 0.0000  plane waves:    1214
 k-point 33 :  -0.2000 0.1333 0.0000  plane waves:    1206
 k-point 34 :  -0.1333 0.1333 0.0000  plane waves:    1212
 k-point 35 :   0.2000 0.2000 0.0000  plane waves:    1168
 k-point 36 :   0.2667 0.2000 0.0000  plane waves:    1190
 k-point 37 :   0.3333 0.2000 0.0000  plane waves:    1208
 k-point 38 :   0.4000 0.2000 0.0000  plane waves:    1214
 k-point 39 :   0.4667 0.2000 0.0000  plane waves:    1210
 k-point 40 :  -0.4667 0.2000 0.0000  plane waves:    1206
 k-point 41 :  -0.4000 0.2000 0.0000  plane waves:    1194
 k-point 42 :  -0.3333 0.2000 0.0000  plane waves:    1198
 k-point 43 :  -0.2667 0.2000 0.0000  plane waves:    1222
 k-point 44 :  -0.2000 0.2000 0.0000  plane waves:    1204
 k-point 45 :   0.2667 0.2667 0.0000  plane waves:    1184
 k-point 46 :   0.3333 0.2667 0.0000  plane waves:    1210
 k-point 47 :   0.4000 0.2667 0.0000  plane waves:    1216
 k-point 48 :   0.4667 0.2667 0.0000  plane waves:    1214
 k-point 49 :  -0.4667 0.2667 0.0000  plane waves:    1218
 k-point 50 :  -0.4000 0.2667 0.0000  plane waves:    1210
 k-point 51 :  -0.3333 0.2667 0.0000  plane waves:    1208
 k-point 52 :  -0.2667 0.2667 0.0000  plane waves:    1220
 k-point 53 :   0.3333 0.3333 0.0000  plane waves:    1224
 k-point 54 :   0.4000 0.3333 0.0000  plane waves:    1222
 k-point 55 :   0.4667 0.3333 0.0000  plane waves:    1212
 k-point 56 :  -0.4667 0.3333 0.0000  plane waves:    1226
 k-point 57 :  -0.4000 0.3333 0.0000  plane waves:    1224
 k-point 58 :  -0.3333 0.3333 0.0000  plane waves:    1212
 k-point 59 :   0.4000 0.4000 0.0000  plane waves:    1224
 k-point 60 :   0.4667 0.4000 0.0000  plane waves:    1220
[...]
 k-point 85 :  -0.4000 0.2667 0.0667  plane waves:    1220
 k-point 86 :  -0.3333 0.2667 0.0667  plane waves:    1218
 k-point 87 :  -0.2667 0.2667 0.0667  plane waves:    1214
 k-point 88 :  -0.2000 0.2667 0.0667  plane waves:    1218
 k-point 89 :   0.4000 0.3333 0.0667  plane waves:    1216
 k-point 90 :   0.4667 0.3333 0.0667  plane waves:    1214
 k-point 91 :  -0.4667 0.3333 0.0667  plane waves:    1214
 k-point 92 :  -0.4000 0.3333 0.0667  plane waves:    1220
 k-point 93 :  -0.3333 0.3333 0.0667  plane waves:    1214
 k-point 94 :  -0.2667 0.3333 0.0667  plane waves:    1208
 k-point 95 :   0.4667 0.4000 0.0667  plane waves:    1220
 k-point 96 :  -0.4667 0.4000 0.0667  plane waves:    1220
 k-point 97 :  -0.4000 0.4000 0.0667  plane waves:    1220
 k-point 98 :  -0.3333 0.4000 0.0667  plane waves:    1216
 k-point 99 :  -0.4667 0.4667 0.0667  plane waves:    1220
 k-point ** :  -0.4000 0.4667 0.0667  plane waves:    1228
 k-point ** :   0.4000 0.2667 0.1333  plane waves:    1208
 k-point ** :   0.4667 0.2667 0.1333  plane waves:    1214
 k-point ** :  -0.4667 0.2667 0.1333  plane waves:    1210
 k-point ** :  -0.4000 0.2667 0.1333  plane waves:    1212
 k-point ** :   0.4667 0.3333 0.1333  plane waves:    1214
 k-point ** :  -0.4667 0.3333 0.1333  plane waves:    1206
 k-point ** :  -0.4000 0.3333 0.1333  plane waves:    1220
 k-point ** :  -0.3333 0.3333 0.1333  plane waves:    1216
 k-point ** :  -0.2667 0.3333 0.1333  plane waves:    1210
 k-point ** :  -0.2000 0.3333 0.1333  plane waves:    1218
 k-point ** :  -0.4667 0.4000 0.1333  plane waves:    1210
 k-point ** :  -0.4000 0.4000 0.1333  plane waves:    1218
 k-point ** :  -0.3333 0.4000 0.1333  plane waves:    1220
 k-point ** :  -0.2667 0.4000 0.1333  plane waves:    1212
 k-point ** :  -0.4000 0.4667 0.1333  plane waves:    1226
 k-point ** :  -0.3333 0.4667 0.1333  plane waves:    1226
 k-point ** :  -0.4000 0.4000 0.2000  plane waves:    1218
 k-point ** :  -0.3333 0.4000 0.2000  plane waves:    1224
 k-point ** :  -0.3333 0.4667 0.2000  plane waves:    1224
 k-point ** :  -0.2667 0.4667 0.2000  plane waves:    1222

 maximum and minimum number of plane-waves per node :       166      134

 maximum number of plane-waves:      1240
 maximum index in each direction:
   IXMAX=    6   IYMAX=    5   IZMAX=    5
   IXMIN=   -6   IYMIN=   -6   IZMIN=   -6

 parallel 3D FFT for wavefunctions:
    minimum data exchange during FFTs selected (reduces bandwidth)
 parallel 3D FFT for charge:
    minimum data exchange during FFTs selected (reduces bandwidth)

 Broyden mixing: mesh for mixing (old mesh)
   NGX = 11   NGY = 11   NGZ = 11
  (NGX  = 48   NGY  = 48   NGZ  = 48)
  gives a total of   1331 points

 initial charge density was supplied:
 charge density of overlapping atoms calculated
 number of electron      11.0000000 magnetization       0.0000000      0.0000000      0.0000000
 keeping initial charge density in first step

 Maximum index for augmentation-charges         8779 (set IRDMAX)

 First call to EWALD:  gamma=   0.675
 Maximum number of real-space cells 3x 3x 3
 Maximum number of reciprocal cells 3x 3x 3

--------------------------------------- Iteration      1(   1)  ---------------------------------------

 BZINTS: Fermi energy: 18.577134; 11.000000 electrons
         Band energy: 129.948904;  BLOECHL correction: -0.103861

 eigenvalue-minimisations  :  5792
 total energy-change (2. order) : 0.6905989E+02  (-0.5934993E+03)
 number of electron      11.0000000 magnetization       0.0000000      0.0000000      0.0000000
 augmentation part       11.0000000 magnetization       0.0000000      0.0000000      0.0000000

 Free energy of the ion-electron system (eV)
  alpha Z        PSCENC =        64.19470378
  Ewald energy   TEWEN  =      -957.56330713
  -Hartree energ DENC   =      -132.13858927
  -exchange      EXHF   =         0.00000000
  -V(xc)+E(xc)   XCENC  =        15.44536944
  PAW double counting   =       874.09750335     -851.01013482
  entropy T*S    EENTRO =         0.00000000
  eigenvalues    EBANDS =       129.94890372
  atomic energy  EATOM  =       926.08544073
  Solvation  Ediel_sol  =         0.00000000
  free energy    TOTEN  =        69.05988980 eV

  energy without entropy =       69.05988980  energy(sigma->0) =       69.05988980

[...]

 eigenvalue-minimisations  :  6928
 total energy-change (2. order) :-0.7127031E+02  (-0.6626335E+02)
 number of electron      11.0000000 magnetization       0.0000000      0.0000000      0.0000000
 augmentation part       11.0000000 magnetization       0.0000000      0.0000000      0.0000000

[...]

 total charge

# of ion       s       p       d       tot
    1        0.544   0.362   8.599   9.504

 magnetization (x)

[...]

 magnetization (y)

[...]

 magnetization (z)

[...]

 Broyden mixing:
  rms(total) = 0.89913E+00    rms(broyden)= 0.89913E+00
  rms(prec ) = 0.15302E+01
  weight for this iteration     100.00

[...]

 eigenvalues of (default mixing * dielectric matrix)
  average eigenvalue GAMMA=   3.5688
  3.5688

[...]

 eigenvalue-minimisations  :  6760
 total energy-change (2. order) : 0.1020371E-06  (-0.1334194E-07)
 number of electron      11.0000000 magnetization      -0.0000000      0.0000000      0.0000000
 augmentation part        4.0202687 magnetization      -0.0000000      0.0000000      0.0000000

 Broyden mixing:
  rms(total) = 0.35352E-04    rms(broyden)= 0.35351E-04
  rms(prec ) = 0.51368E-04
  weight for this iteration     100.00

 eigenvalues of (default mixing * dielectric matrix)
  average eigenvalue GAMMA=   2.4371
  5.1531  4.8483  2.1630  0.9764  1.0400  1.2504  1.6288

[...]

--------------------------------------- Iteration      1(  13)  ---------------------------------------

 BZINTS: Fermi energy:  8.554397; 11.000000 electrons
         Band energy:  48.888985;  BLOECHL correction: -0.035776

 eigenvalue-minimisations  :  3752
 total energy-change (2. order) :-0.1438138E-09  (-0.1190997E-09)
 number of electron      11.0000000 magnetization      -0.0000000      0.0000000      0.0000000
 augmentation part        4.0202687 magnetization      -0.0000000      0.0000000      0.0000000

 Free energy of the ion-electron system (eV)
  alpha Z        PSCENC =        64.19470378
  Ewald energy   TEWEN  =      -957.56330713
  -Hartree energ DENC   =      -120.59654943
  -exchange      EXHF   =         0.00000000
  -V(xc)+E(xc)   XCENC  =        14.92673391
  PAW double counting   =      1028.67199003    -1008.11072793
  entropy T*S    EENTRO =         0.00000000
  eigenvalues    EBANDS =        48.88898463
  atomic energy  EATOM  =       926.08544073
  Solvation  Ediel_sol  =         0.00000000
  free energy    TOTEN  =        -3.50273141 eV

  energy without entropy =       -3.50273141  energy(sigma->0) =       -3.50273141

 average (electrostatic) potential at core
  the test charge radii are     1.2098
  (the norm of the test charge is              1.0000)
       1 -64.9945

 E-fermi :   8.5544     XC(G=0): -12.3534     alpha+bet :-13.0865

 k-point     1 :       0.0000    0.0000    0.0000
  band No.  band energies     occupation
      1      -0.7506      1.00000
      2      -0.7506      1.00000
      3       3.4366      1.00000
      4       3.4366      1.00000
      5       3.4366      1.00000
      6       3.4366      1.00000
      7       4.6415      1.00000
      8       4.6415      1.00000
      9       5.7043      1.00000
     10       5.7043      1.00000
     11       5.7043      1.00000
     12       5.7043      1.00000
     13      23.0526      0.00000
     14      23.0526      0.00000
     15      25.8044      0.00000
     16      25.8044      0.00000
     17      26.9762      0.00000
     18      26.9762      0.00000
     19      26.9762      0.00000
     20      26.9762      0.00000
     21      31.4092      0.00000
     22      31.4092      0.00000
     23      34.2956      0.00000
     24      34.2956      0.00000

[...]

 k-point   120 :      -0.2667    0.4667    0.2000
  band No.  band energies     occupation
      1       2.7284      1.00000
      2       2.7284      1.00000
      3       3.1550      1.00000
      4       3.1550      1.00000
      5       3.9140      1.00000
      6       3.9140      1.00000
      7       5.5162      1.00000
      8       5.5162      1.00000
      9       6.8265      1.00000
     10       6.8265      1.00000
     11      12.5462      0.00000
     12      12.5462      0.00000
     13      13.9201      0.00000
     14      13.9201      0.00000
     15      15.1670      0.00000
     16      15.1670      0.00000
     17      17.9180      0.00000
     18      17.9180      0.00000
     19      29.5923      0.00000
     20      29.5923      0.00000
     21      31.0302      0.00000
     22      31.0302      0.00000
     23      32.3925      0.00000
     24      32.3925      0.00000

 soft charge-density along one line, spin component           1
         0         1         2         3         4         5         6         7         8         9
 total charge-density along one line

[...]

 soft charge-density along one line, spin component           4
         0         1         2         3         4         5         6         7         8         9
 total charge-density along one line

------------------------ aborting loop because EDIFF is reached ----------------------------------------

[...]

  FORCE on cell =-STRESS in cart. coord.  units (eV):
  Direction    XX          YY          ZZ          XY          YZ          ZX
  Alpha Z    64.19470    64.19470    64.19470
  Ewald    -319.18778  -319.18778  -319.18778     0.00000    -0.00000    -0.00000
  Hartree    40.19885    40.19885    40.19885     0.00000     0.00000     0.00000
  E(xc)     -49.47790   -49.47790   -49.47790     0.00000     0.00000     0.00000
  Local      43.78699    43.78699    43.78699    -0.00001    -0.00001    -0.00001
  n-local    -1.27598     2.57192    -3.11019     3.28356    -3.28801     2.51706
  augment    67.80720    67.80720    67.80720     0.00001     0.00001     0.00001
  Kinetic   152.64824   151.90041   154.42603     0.47900     1.41250    -1.76754
  Fock        0.00000     0.00000     0.00000     0.00000     0.00000     0.00000
  Total      -0.29113    -0.29113    -0.29113    -0.00000     0.00000     0.00000
  in kB     -25.70689   -25.70689   -25.70689    -0.00000     0.00000     0.00000

 VOLUME and BASIS-vectors are now :
  energy-cutoff  :      600.00
  volume of cell :       18.14
      direct lattice vectors                 reciprocal lattice vectors
     0.000000000  2.085644245  2.085644245    -0.239734078  0.239734078  0.239734078
     2.085644245  0.000000000  2.085644245     0.239734078 -0.239734078  0.239734078
     2.085644245  2.085644245  0.000000000     0.239734078  0.239734078 -0.239734078

  length of vectors
     2.949546378  2.949546378  2.949546378     0.415231603  0.415231603  0.415231603

 FORCES acting on ions
    electron-ion (+dipol)            ewald-force                    non-local-force                 convergence-correction
   -.185E-13 -.179E-13 -.178E-13   -.259E-15 0.167E-14 -.129E-14   0.207E-24 0.000E+00 0.000E+00   0.280E-14 0.108E-13 0.199E-14
   -.185E-13 -.179E-13 -.178E-13   -.259E-15 0.167E-14 -.129E-14   0.207E-24 0.000E+00 0.000E+00   0.280E-14 0.108E-13 0.199E-14

 POSITION                                       TOTAL-FORCE (eV/Angst)
      0.00000      0.00000      0.00000        -0.000000      0.000000     -0.000000
    total drift:                               -0.000000     -0.000000     -0.000000

  FREE ENERGIE OF THE ION-ELECTRON SYSTEM (eV)
  free  energy   TOTEN  =        -3.50273141 eV

  energy  without entropy=       -3.50273141  energy(sigma->0) =       -3.50273141

 Spin-Orbit-Coupling matrix elements

 Ion:    1  E_soc:     -0.5695521
 l=   1
     0.0000000    -0.0236577    -0.0236577
    -0.0236577     0.0000000    -0.0236577
    -0.0236577    -0.0236577     0.0000000
 l=   2
     0.0000000    -0.0155578     0.0000000    -0.0155578    -0.0557098
    -0.0155578     0.0000000    -0.0417823    -0.0155578    -0.0139274
     0.0000000    -0.0417823     0.0000000    -0.0417823     0.0000000
    -0.0155578    -0.0155578    -0.0417823     0.0000000    -0.0139274
    -0.0557098    -0.0139274     0.0000000    -0.0139274     0.0000000
 l=   3
     0.0000000     0.0000000     0.0000000     0.0000000     0.0000000     0.0000000     0.0000000
     0.0000000     0.0000000     0.0000000     0.0000000     0.0000000     0.0000000     0.0000000
     0.0000000     0.0000000     0.0000000     0.0000000     0.0000000     0.0000000     0.0000000
     0.0000000     0.0000000     0.0000000     0.0000000     0.0000000     0.0000000     0.0000000
     0.0000000     0.0000000     0.0000000     0.0000000     0.0000000     0.0000000     0.0000000
     0.0000000     0.0000000     0.0000000     0.0000000     0.0000000     0.0000000     0.0000000
     0.0000000     0.0000000     0.0000000     0.0000000     0.0000000     0.0000000     0.0000000

 total charge

[...]

 magnetization (x)

[...]

 magnetization (y)

[...]

 magnetization (z)

# of ion       s       p       d       tot
    1        0.000   0.000   0.000   0.000

 BZINTS: Fermi energy:  8.554397; 11.000000 electrons
         Band energy:  48.888985;  BLOECHL correction: -0.035776
 BZINTS: Fermi energy:  8.554397; 11.000000 electrons
         Band energy:  48.888985;  BLOECHL correction: -0.035776
 BZINTS: Fermi energy:  8.554397; 11.000000 electrons
         Band energy:  48.888985;  BLOECHL correction: -0.035776
 BZINTS: Fermi energy:  8.554397; 11.000000 electrons
         Band energy:  48.888985;  BLOECHL correction: -0.035776