 vasp.5.4.4.18Apr17-6-g9f103f2a35 (build Apr 05 2022 19:15:58) complex

 executed on             LinuxIFC date 2024.04.03  01:54:56

 INCAR:
 POTCAR:    PW_PBE Au 04Oct2007

 POTCAR:    PW_PBE Au 04Oct2007
   VRHFIN =Au: s1d10

   TITEL  = PAW_PBE Au 04Oct2007
   POMASS =  196.966; ZVAL   =   11.000    mass and valenz
   ENMAX  =  229.943; ENMIN  =  172.457 eV

  PW_PBE Au 04Oct2007                   :

 POSCAR: Au1
  positions in direct lattice
  velocities in cartesian coordinates
 exchange correlation table for  LEXCH =        8
   RHO(1)=    0.500       N(1)  =     2000
   RHO(2)=  100.500       N(2)  =     4000

 ion  position               nearest neighbor table
   1  0.000  0.000  0.000-

  LATTYP: Found a face centered cubic cell.
 ALAT       =     4.1712884904

  Lattice vectors:

 A1 = (   0.0000000000,   2.0856442452,   2.0856442452)
 A2 = (   2.0856442452,   0.0000000000,   2.0856442452)
 A3 = (   2.0856442452,   2.0856442452,   0.0000000000)

Analysis of symmetry for initial positions (statically):
 Subroutine PRICEL returns:
 Original cell was already a primitive cell.

 Routine SETGRP: Setting up the symmetry group for a
 face centered cubic supercell.

 Subroutine GETGRP returns: Found 48 space group operations
 (whereof 48 operations were pure point group operations)
 out of a pool of 48 trial point group operations.

The static configuration has the point symmetry O_h .

Analysis of symmetry for dynamics (positions and initial velocities):
 Subroutine PRICEL returns:
 Original cell was already a primitive cell.

 Routine SETGRP: Setting up the symmetry group for a
 face centered cubic supercell.

 Subroutine GETGRP returns: Found 48 space group operations
 (whereof 48 operations were pure point group operations)
 out of a pool of 48 trial point group operations.

The dynamic configuration has the point symmetry O_h .

 Subroutine INISYM returns: Found 48 space group operations
 (whereof 48 operations are pure point group operations),
 and found     1 'primitive' translations

 KPOINTS: Automatic mesh

Automatic generation of k-mesh.
Space group operators:
 irot       det(A)        alpha          n_x          n_y          n_z        tau_x        tau_y        tau_z
    1     1.000000     0.000000     1.000000     0.000000     0.000000     0.000000     0.000000     0.000000
    2    -1.000000     0.000000     1.000000     0.000000     0.000000     0.000000     0.000000     0.000000
    3     1.000000   120.000000    -0.577350    -0.577350    -0.577350     0.000000     0.000000     0.000000
    4    -1.000000   120.000000    -0.577350    -0.577350    -0.577350     0.000000     0.000000     0.000000
    5     1.000000   120.000000     0.577350     0.577350     0.577350     0.000000     0.000000     0.000000
    6    -1.000000   120.000000     0.577350     0.577350     0.577350     0.000000     0.000000     0.000000
    7     1.000000    90.000000     0.000000     0.000000    -1.000000     0.000000     0.000000     0.000000
    8    -1.000000    90.000000     0.000000     0.000000    -1.000000     0.000000     0.000000     0.000000
    9     1.000000   180.000000     0.000000     0.707107     0.707107     0.000000     0.000000     0.000000
   10    -1.000000   180.000000     0.000000     0.707107     0.707107     0.000000     0.000000     0.000000
   11     1.000000    90.000000     0.000000     1.000000     0.000000     0.000000     0.000000     0.000000
   12    -1.000000    90.000000     0.000000     1.000000     0.000000     0.000000     0.000000     0.000000
   13     1.000000   180.000000     0.000000     0.000000     1.000000     0.000000     0.000000     0.000000
   14    -1.000000   180.000000     0.000000     0.000000     1.000000     0.000000     0.000000     0.000000
   15     1.000000   120.000000    -0.577350     0.577350     0.577350     0.000000     0.000000     0.000000
   16    -1.000000   120.000000    -0.577350     0.577350     0.577350     0.000000     0.000000     0.000000
   17     1.000000   120.000000    -0.577350     0.577350    -0.577350     0.000000     0.000000     0.000000
   18    -1.000000   120.000000    -0.577350     0.577350    -0.577350     0.000000     0.000000     0.000000
   19     1.000000    90.000000     0.000000     0.000000     1.000000     0.000000     0.000000     0.000000
   20    -1.000000    90.000000     0.000000     0.000000     1.000000     0.000000     0.000000     0.000000
   21     1.000000    90.000000    -1.000000     0.000000     0.000000     0.000000     0.000000     0.000000
   22    -1.000000    90.000000    -1.000000     0.000000     0.000000     0.000000     0.000000     0.000000
   23     1.000000   180.000000     0.707107     0.000000     0.707107     0.000000     0.000000     0.000000
   24    -1.000000   180.000000     0.707107     0.000000     0.707107     0.000000     0.000000     0.000000
   25     1.000000   120.000000     0.577350    -0.577350     0.577350     0.000000     0.000000     0.000000
   26    -1.000000   120.000000     0.577350    -0.577350     0.577350     0.000000     0.000000     0.000000
   27     1.000000   120.000000    -0.577350    -0.577350     0.577350     0.000000     0.000000     0.000000
   28    -1.000000   120.000000    -0.577350    -0.577350     0.577350     0.000000     0.000000     0.000000
   29     1.000000   180.000000     1.000000     0.000000     0.000000     0.000000     0.000000     0.000000
   30    -1.000000   180.000000     1.000000     0.000000     0.000000     0.000000     0.000000     0.000000
   31     1.000000    90.000000     0.000000    -1.000000     0.000000     0.000000     0.000000     0.000000
   32    -1.000000    90.000000     0.000000    -1.000000     0.000000     0.000000     0.000000     0.000000
   33     1.000000   180.000000     0.707107     0.707107     0.000000     0.000000     0.000000     0.000000
   34    -1.000000   180.000000     0.707107     0.707107     0.000000     0.000000     0.000000     0.000000
   35     1.000000    90.000000     1.000000     0.000000     0.000000     0.000000     0.000000     0.000000
   36    -1.000000    90.000000     1.000000     0.000000     0.000000     0.000000     0.000000     0.000000
   37     1.000000   120.000000     0.577350    -0.577350    -0.577350     0.000000     0.000000     0.000000
   38    -1.000000   120.000000     0.577350    -0.577350    -0.577350     0.000000     0.000000     0.000000
   39     1.000000   180.000000     0.000000     1.000000     0.000000     0.000000     0.000000     0.000000
   40    -1.000000   180.000000     0.000000     1.000000     0.000000     0.000000     0.000000     0.000000
   41     1.000000   120.000000     0.577350     0.577350    -0.577350     0.000000     0.000000     0.000000
   42    -1.000000   120.000000     0.577350     0.577350    -0.577350     0.000000     0.000000     0.000000
   43     1.000000   180.000000     0.000000    -0.707107     0.707107     0.000000     0.000000     0.000000
   44    -1.000000   180.000000     0.000000    -0.707107     0.707107     0.000000     0.000000     0.000000
   45     1.000000   180.000000     0.707107    -0.707107     0.000000     0.000000     0.000000     0.000000
   46    -1.000000   180.000000     0.707107    -0.707107     0.000000     0.000000     0.000000     0.000000
   47     1.000000   180.000000     0.707107     0.000000    -0.707107     0.000000     0.000000     0.000000
   48    -1.000000   180.000000     0.707107     0.000000    -0.707107     0.000000     0.000000     0.000000

 Subroutine IBZKPT returns following result:

 Found    120 irreducible k-points:

 Following reciprocal coordinates:
            Coordinates               Weight
  0.000000  0.000000  0.000000      1.000000
  0.066667  0.000000  0.000000      8.000000
  0.133333  0.000000  0.000000      8.000000
  0.200000  0.000000  0.000000      8.000000
  0.266667  0.000000  0.000000      8.000000
  0.333333  0.000000  0.000000      8.000000
  0.400000  0.000000  0.000000      8.000000
  0.466667  0.000000  0.000000      8.000000
  0.066667  0.066667  0.000000      6.000000
  0.133333  0.066667  0.000000     24.000000
  0.200000  0.066667  0.000000     24.000000
  0.266667  0.066667  0.000000     24.000000
  0.333333  0.066667  0.000000     24.000000
  0.400000  0.066667  0.000000     24.000000
  0.466667  0.066667  0.000000     24.000000
 -0.466667  0.066667  0.000000     24.000000
 -0.400000  0.066667  0.000000     24.000000
 -0.333333  0.066667  0.000000     24.000000
 -0.266667  0.066667  0.000000     24.000000
 -0.200000  0.066667  0.000000     24.000000
 -0.133333  0.066667  0.000000     24.000000
 -0.066667  0.066667  0.000000     12.000000
  0.133333  0.133333  0.000000      6.000000
  0.200000  0.133333  0.000000     24.000000
  0.266667  0.133333  0.000000     24.000000
  0.333333  0.133333  0.000000     24.000000
  0.400000  0.133333  0.000000     24.000000
  0.466667  0.133333  0.000000     24.000000
 -0.466667  0.133333  0.000000     24.000000
 -0.400000  0.133333  0.000000     24.000000
 -0.333333  0.133333  0.000000     24.000000
 -0.266667  0.133333  0.000000     24.000000
 -0.200000  0.133333  0.000000     24.000000
 -0.133333  0.133333  0.000000     12.000000
  0.200000  0.200000  0.000000      6.000000
  0.266667  0.200000  0.000000     24.000000
  0.333333  0.200000  0.000000     24.000000
  0.400000  0.200000  0.000000     24.000000
  0.466667  0.200000  0.000000     24.000000
 -0.466667  0.200000  0.000000     24.000000
 -0.400000  0.200000  0.000000     24.000000
 -0.333333  0.200000  0.000000     24.000000
 -0.266667  0.200000  0.000000     24.000000
 -0.200000  0.200000  0.000000     12.000000
  0.266667  0.266667  0.000000      6.000000
  0.333333  0.266667  0.000000     24.000000
  0.400000  0.266667  0.000000     24.000000
  0.466667  0.266667  0.000000     24.000000
 -0.466667  0.266667  0.000000     24.000000
 -0.400000  0.266667  0.000000     24.000000
 -0.333333  0.266667  0.000000     24.000000
 -0.266667  0.266667  0.000000     12.000000
  0.333333  0.333333  0.000000      6.000000
  0.400000  0.333333  0.000000     24.000000
  0.466667  0.333333  0.000000     24.000000
 -0.466667  0.333333  0.000000     24.000000
 -0.400000  0.333333  0.000000     24.000000
 -0.333333  0.333333  0.000000     12.000000
  0.400000  0.400000  0.000000      6.000000
  0.466667  0.400000  0.000000     24.000000
[...]
 -0.466667  0.333333  0.133333     48.000000
 -0.400000  0.333333  0.133333     48.000000
 -0.333333  0.333333  0.133333     48.000000
 -0.266667  0.333333  0.133333     48.000000
 -0.200000  0.333333  0.133333     24.000000
 -0.466667  0.400000  0.133333     24.000000
 -0.400000  0.400000  0.133333     48.000000
 -0.333333  0.400000  0.133333     48.000000
 -0.266667  0.400000  0.133333     24.000000
 -0.400000  0.466667  0.133333     24.000000
 -0.333333  0.466667  0.133333     24.000000
 -0.400000  0.400000  0.200000     24.000000
 -0.333333  0.400000  0.200000     48.000000
 -0.333333  0.466667  0.200000     24.000000
 -0.266667  0.466667  0.200000     24.000000

 Following cartesian coordinates:
            Coordinates               Weight
  0.000000  0.000000  0.000000      1.000000
[...]
   0.40000000  0.13333333  0.00000000       0.007
   0.46666667  0.13333333  0.00000000       0.007
  -0.46666667  0.13333333  0.00000000       0.007
  -0.40000000  0.13333333  0.00000000       0.007
  -0.33333333  0.13333333  0.00000000       0.007
  -0.26666667  0.13333333  0.00000000       0.007
  -0.20000000  0.13333333  0.00000000       0.007
  -0.13333333  0.13333333  0.00000000       0.004
   0.20000000  0.20000000  0.00000000       0.002
   0.26666667  0.20000000  0.00000000       0.007
   0.33333333  0.20000000  0.00000000       0.007
   0.40000000  0.20000000  0.00000000       0.007
   0.46666667  0.20000000  0.00000000       0.007
  -0.46666667  0.20000000  0.00000000       0.007
  -0.40000000  0.20000000  0.00000000       0.007
  -0.33333333  0.20000000  0.00000000       0.007
  -0.26666667  0.20000000  0.00000000       0.007
  -0.20000000  0.20000000  0.00000000       0.004
   0.26666667  0.26666667  0.00000000       0.002
   0.33333333  0.26666667  0.00000000       0.007
   0.40000000  0.26666667  0.00000000       0.007
   0.46666667  0.26666667  0.00000000       0.007
  -0.46666667  0.26666667  0.00000000       0.007
  -0.40000000  0.26666667  0.00000000       0.007
  -0.33333333  0.26666667  0.00000000       0.007
  -0.26666667  0.26666667  0.00000000       0.004
   0.33333333  0.33333333  0.00000000       0.002
   0.40000000  0.33333333  0.00000000       0.007
   0.46666667  0.33333333  0.00000000       0.007
  -0.46666667  0.33333333  0.00000000       0.007
  -0.40000000  0.33333333  0.00000000       0.007
  -0.33333333  0.33333333  0.00000000       0.004
   0.40000000  0.40000000  0.00000000       0.002
   0.46666667  0.40000000  0.00000000       0.007
[...]
  -0.46666667  0.33333333  0.13333333       0.014
  -0.40000000  0.33333333  0.13333333       0.014
  -0.33333333  0.33333333  0.13333333       0.014
  -0.26666667  0.33333333  0.13333333       0.014
  -0.20000000  0.33333333  0.13333333       0.007
  -0.46666667  0.40000000  0.13333333       0.007
  -0.40000000  0.40000000  0.13333333       0.014
  -0.33333333  0.40000000  0.13333333       0.014
  -0.26666667  0.40000000  0.13333333       0.007
  -0.40000000  0.46666667  0.13333333       0.007
  -0.33333333  0.46666667  0.13333333       0.007
  -0.40000000  0.40000000  0.20000000       0.007
  -0.33333333  0.40000000  0.20000000       0.014
  -0.33333333  0.46666667  0.20000000       0.007
  -0.26666667  0.46666667  0.20000000       0.007

 position of ions in fractional coordinates (direct lattice)
   0.00000000  0.00000000  0.00000000

 position of ions in cartesian coordinates  (Angst):
   0.00000000  0.00000000  0.00000000

 k-point  1 :   0.0000 0.0000 0.0000  plane waves:     609
 k-point  2 :   0.0667 0.0000 0.0000  plane waves:     606
 k-point  3 :   0.1333 0.0000 0.0000  plane waves:     591
 k-point  4 :   0.2000 0.0000 0.0000  plane waves:     592
 k-point  5 :   0.2667 0.0000 0.0000  plane waves:     607
 k-point  6 :   0.3333 0.0000 0.0000  plane waves:     601
 k-point  7 :   0.4000 0.0000 0.0000  plane waves:     604
 k-point  8 :   0.4667 0.0000 0.0000  plane waves:     598
 k-point  9 :   0.0667 0.0667 0.0000  plane waves:     601
 k-point 10 :   0.1333 0.0667 0.0000  plane waves:     597
 k-point 11 :   0.2000 0.0667 0.0000  plane waves:     592
 k-point 12 :   0.2667 0.0667 0.0000  plane waves:     597
 k-point 13 :   0.3333 0.0667 0.0000  plane waves:     604
 k-point 14 :   0.4000 0.0667 0.0000  plane waves:     602
 k-point 15 :   0.4667 0.0667 0.0000  plane waves:     602
 k-point 16 :  -0.4667 0.0667 0.0000  plane waves:     602
 k-point 17 :  -0.4000 0.0667 0.0000  plane waves:     605
 k-point 18 :  -0.3333 0.0667 0.0000  plane waves:     607
 k-point 19 :  -0.2667 0.0667 0.0000  plane waves:     605
 k-point 20 :  -0.2000 0.0667 0.0000  plane waves:     598
 k-point 21 :  -0.1333 0.0667 0.0000  plane waves:     593
 k-point 22 :  -0.0667 0.0667 0.0000  plane waves:     596
 k-point 23 :   0.1333 0.1333 0.0000  plane waves:     597
 k-point 24 :   0.2000 0.1333 0.0000  plane waves:     588
 k-point 25 :   0.2667 0.1333 0.0000  plane waves:     602
 k-point 26 :   0.3333 0.1333 0.0000  plane waves:     604
 k-point 27 :   0.4000 0.1333 0.0000  plane waves:     605
 k-point 28 :   0.4667 0.1333 0.0000  plane waves:     602
 k-point 29 :  -0.4667 0.1333 0.0000  plane waves:     604
 k-point 30 :  -0.4000 0.1333 0.0000  plane waves:     602
 k-point 31 :  -0.3333 0.1333 0.0000  plane waves:     608
 k-point 32 :  -0.2667 0.1333 0.0000  plane waves:     607
 k-point 33 :  -0.2000 0.1333 0.0000  plane waves:     603
 k-point 34 :  -0.1333 0.1333 0.0000  plane waves:     606
 k-point 35 :   0.2000 0.2000 0.0000  plane waves:     584
 k-point 36 :   0.2667 0.2000 0.0000  plane waves:     595
 k-point 37 :   0.3333 0.2000 0.0000  plane waves:     604
 k-point 38 :   0.4000 0.2000 0.0000  plane waves:     607
 k-point 39 :   0.4667 0.2000 0.0000  plane waves:     605
 k-point 40 :  -0.4667 0.2000 0.0000  plane waves:     603
 k-point 41 :  -0.4000 0.2000 0.0000  plane waves:     597
 k-point 42 :  -0.3333 0.2000 0.0000  plane waves:     599
 k-point 43 :  -0.2667 0.2000 0.0000  plane waves:     611
 k-point 44 :  -0.2000 0.2000 0.0000  plane waves:     602
 k-point 45 :   0.2667 0.2667 0.0000  plane waves:     592
 k-point 46 :   0.3333 0.2667 0.0000  plane waves:     605
 k-point 47 :   0.4000 0.2667 0.0000  plane waves:     608
 k-point 48 :   0.4667 0.2667 0.0000  plane waves:     607
 k-point 49 :  -0.4667 0.2667 0.0000  plane waves:     609
 k-point 50 :  -0.4000 0.2667 0.0000  plane waves:     605
 k-point 51 :  -0.3333 0.2667 0.0000  plane waves:     604
 k-point 52 :  -0.2667 0.2667 0.0000  plane waves:     610
 k-point 53 :   0.3333 0.3333 0.0000  plane waves:     612
 k-point 54 :   0.4000 0.3333 0.0000  plane waves:     611
 k-point 55 :   0.4667 0.3333 0.0000  plane waves:     606
 k-point 56 :  -0.4667 0.3333 0.0000  plane waves:     613
 k-point 57 :  -0.4000 0.3333 0.0000  plane waves:     612
 k-point 58 :  -0.3333 0.3333 0.0000  plane waves:     606
 k-point 59 :   0.4000 0.4000 0.0000  plane waves:     612
 k-point 60 :   0.4667 0.4000 0.0000  plane waves:     610
[...]
 k-point 85 :  -0.4000 0.2667 0.0667  plane waves:     610
 k-point 86 :  -0.3333 0.2667 0.0667  plane waves:     609
 k-point 87 :  -0.2667 0.2667 0.0667  plane waves:     607
 k-point 88 :  -0.2000 0.2667 0.0667  plane waves:     609
 k-point 89 :   0.4000 0.3333 0.0667  plane waves:     608
 k-point 90 :   0.4667 0.3333 0.0667  plane waves:     607
 k-point 91 :  -0.4667 0.3333 0.0667  plane waves:     607
 k-point 92 :  -0.4000 0.3333 0.0667  plane waves:     610
 k-point 93 :  -0.3333 0.3333 0.0667  plane waves:     607
 k-point 94 :  -0.2667 0.3333 0.0667  plane waves:     604
 k-point 95 :   0.4667 0.4000 0.0667  plane waves:     610
 k-point 96 :  -0.4667 0.4000 0.0667  plane waves:     610
 k-point 97 :  -0.4000 0.4000 0.0667  plane waves:     610
 k-point 98 :  -0.3333 0.4000 0.0667  plane waves:     608
 k-point 99 :  -0.4667 0.4667 0.0667  plane waves:     610
 k-point ** :  -0.4000 0.4667 0.0667  plane waves:     614
 k-point ** :   0.4000 0.2667 0.1333  plane waves:     604
 k-point ** :   0.4667 0.2667 0.1333  plane waves:     607
 k-point ** :  -0.4667 0.2667 0.1333  plane waves:     605
 k-point ** :  -0.4000 0.2667 0.1333  plane waves:     606
 k-point ** :   0.4667 0.3333 0.1333  plane waves:     607
 k-point ** :  -0.4667 0.3333 0.1333  plane waves:     603
 k-point ** :  -0.4000 0.3333 0.1333  plane waves:     610
 k-point ** :  -0.3333 0.3333 0.1333  plane waves:     608
 k-point ** :  -0.2667 0.3333 0.1333  plane waves:     605
 k-point ** :  -0.2000 0.3333 0.1333  plane waves:     609
 k-point ** :  -0.4667 0.4000 0.1333  plane waves:     605
 k-point ** :  -0.4000 0.4000 0.1333  plane waves:     609
 k-point ** :  -0.3333 0.4000 0.1333  plane waves:     610
 k-point ** :  -0.2667 0.4000 0.1333  plane waves:     606
 k-point ** :  -0.4000 0.4667 0.1333  plane waves:     613
 k-point ** :  -0.3333 0.4667 0.1333  plane waves:     613
 k-point ** :  -0.4000 0.4000 0.2000  plane waves:     609
 k-point ** :  -0.3333 0.4000 0.2000  plane waves:     612
 k-point ** :  -0.3333 0.4667 0.2000  plane waves:     612
 k-point ** :  -0.2667 0.4667 0.2000  plane waves:     611

 maximum and minimum number of plane-waves per node :        83       67

 maximum number of plane-waves:       620
 maximum index in each direction:
   IXMAX=    6   IYMAX=    5   IZMAX=    5
   IXMIN=   -6   IYMIN=   -6   IZMIN=   -6

 parallel 3D FFT for wavefunctions:
    minimum data exchange during FFTs selected (reduces bandwidth)
 parallel 3D FFT for charge:
    minimum data exchange during FFTs selected (reduces bandwidth)

 Broyden mixing: mesh for mixing (old mesh)
   NGX = 11   NGY = 11   NGZ = 11
  (NGX  = 48   NGY  = 48   NGZ  = 48)
  gives a total of   1331 points

 initial charge density was supplied:
 charge density of overlapping atoms calculated
 number of electron      11.0000000 magnetization
 keeping initial charge density in first step

 Maximum index for augmentation-charges         8779 (set IRDMAX)

 First call to EWALD:  gamma=   0.675
 Maximum number of real-space cells 3x 3x 3
 Maximum number of reciprocal cells 3x 3x 3

--------------------------------------- Iteration      1(   1)  ---------------------------------------

 BZINTS: Fermi energy: 17.317047; 11.000000 electrons
         Band energy: 120.422900;  BLOECHL correction: -0.468810

 eigenvalue-minimisations  :  3848
 total energy-change (2. order) : 0.5953389E+02  (-0.5764883E+03)
 number of electron      11.0000000 magnetization
 augmentation part       11.0000000 magnetization

 Free energy of the ion-electron system (eV)
  alpha Z        PSCENC =        64.19470378
  Ewald energy   TEWEN  =      -957.56330713
  -Hartree energ DENC   =      -132.13858927
  -exchange      EXHF   =         0.00000000
  -V(xc)+E(xc)   XCENC  =        15.44536944
  PAW double counting   =       874.09750335     -851.01013482
  entropy T*S    EENTRO =         0.00000000
  eigenvalues    EBANDS =       120.42289982
  atomic energy  EATOM  =       926.08544073
  Solvation  Ediel_sol  =         0.00000000
  free energy    TOTEN  =        59.53388590 eV

  energy without entropy =       59.53388590  energy(sigma->0) =       59.53388590

[...]

 eigenvalue-minimisations  :  5176
 total energy-change (2. order) :-0.6191869E+02  (-0.5797565E+02)
 number of electron      11.0000000 magnetization
 augmentation part       11.0000000 magnetization

[...]

 Broyden mixing:
  rms(total) = 0.77170E+00    rms(broyden)= 0.77170E+00
  rms(prec ) = 0.14108E+01
  weight for this iteration     100.00

[...]

 eigenvalues of (default mixing * dielectric matrix)
  average eigenvalue GAMMA=   3.5413
  3.5413

[...]

 eigenvalue-minimisations  :  5072
 total energy-change (2. order) :-0.4506254E-06  (-0.2195607E-06)
 number of electron      11.0000000 magnetization
 augmentation part        4.0298312 magnetization

 Broyden mixing:
  rms(total) = 0.42723E-02    rms(broyden)= 0.42723E-02
  rms(prec ) = 0.45981E-02
  weight for this iteration     100.00

 eigenvalues of (default mixing * dielectric matrix)
  average eigenvalue GAMMA=   2.5836
  5.1041  3.5853  2.1608  1.1047  0.9633

[...]

--------------------------------------- Iteration      1(  11)  ---------------------------------------

[...]

 eigenvalue-minimisations  :  5024
 total energy-change (2. order) : 0.8733991E-08  (-0.3806251E-07)
 number of electron      11.0000000 magnetization
 augmentation part        4.0298312 magnetization

 Free energy of the ion-electron system (eV)
  alpha Z        PSCENC =        64.19470378
  Ewald energy   TEWEN  =      -957.56330713
  -Hartree energ DENC   =      -121.14123063
  -exchange      EXHF   =         0.00000000
  -V(xc)+E(xc)   XCENC  =        14.95056043
  PAW double counting   =      1018.76191448     -998.03983784
  entropy T*S    EENTRO =         0.00000000
  eigenvalues    EBANDS =        49.53207834
  atomic energy  EATOM  =       926.08544073
  Solvation  Ediel_sol  =         0.00000000
  free energy    TOTEN  =        -3.21967785 eV

  energy without entropy =       -3.21967785  energy(sigma->0) =       -3.21967785

 average (electrostatic) potential at core
  the test charge radii are     1.2098
  (the norm of the test charge is              1.0000)
       1 -64.9340

 E-fermi :   8.5080     XC(G=0): -12.3440     alpha+bet :-13.0865

 k-point     1 :       0.0000    0.0000    0.0000
  band No.  band energies     occupation
      1      -0.7473      2.00000
      2       4.0932      2.00000
      3       4.0932      2.00000
      4       4.0932      2.00000
      5       5.4482      2.00000
      6       5.4482      2.00000
      7      23.0519      0.00000
      8      26.6902      0.00000
      9      26.6902      0.00000
     10      26.6902      0.00000
     11      31.4007      0.00000
     12      35.3861      0.00000
     13      35.3861      0.00000
     14      35.3861      0.00000
     15      36.7277      0.00000
     16      36.7277      0.00000

[...]

 k-point   120 :      -0.2667    0.4667    0.2000
  band No.  band energies     occupation
      1       2.9720      2.00000
      2       3.4946      2.00000
      3       3.8852      2.00000
      4       5.3546      2.00000
      5       6.7630      2.00000
      6      12.5818      0.00000
      7      14.2585      0.00000
      8      14.9815      0.00000
      9      17.8565      0.00000
     10      29.6055      0.00000
     11      31.0378      0.00000
     12      32.4037      0.00000
     13      35.2417      0.00000
     14      38.9665      0.00000
     15      40.4166      0.00000
     16      42.4457      0.00000

 soft charge-density along one line, spin component           1
         0         1         2         3         4         5         6         7         8         9
 total charge-density along one line

------------------------ aborting loop because EDIFF is reached ----------------------------------------

 total charge

# of ion       s       p       d       tot
    1        0.520   0.309   8.760   9.588

  FORCE on cell =-STRESS in cart. coord.  units (eV):
  Direction    XX          YY          ZZ          XY          YZ          ZX
  Alpha Z    64.19470    64.19470    64.19470
  Ewald    -319.18778  -319.18778  -319.18778     0.00000    -0.00000    -0.00000
  Hartree    40.38039    40.38039    40.38039     0.00000     0.00000     0.00000
  E(xc)     -49.51804   -49.51804   -49.51804     0.00000     0.00000     0.00000
  Local      43.85394    43.85394    43.85394    -0.00001    -0.00001    -0.00001
  n-local    -1.61825     2.19982    -3.47215     3.25854    -3.32563     2.57123
  augment    67.83731    67.83731    67.83731     0.00001     0.00001     0.00001
  Kinetic   152.90100   152.19672   154.59859     0.53696     1.37717    -1.74012
  Fock        0.00000     0.00000     0.00000     0.00000     0.00000     0.00000
  Total      -0.17090    -0.17090    -0.17090     0.00000    -0.00000     0.00000
  in kB     -15.09048   -15.09048   -15.09048     0.00000    -0.00000     0.00000

 VOLUME and BASIS-vectors are now :
  energy-cutoff  :      600.00
  volume of cell :       18.14
      direct lattice vectors                 reciprocal lattice vectors
     0.000000000  2.085644245  2.085644245    -0.239734078  0.239734078  0.239734078
     2.085644245  0.000000000  2.085644245     0.239734078 -0.239734078  0.239734078
     2.085644245  2.085644245  0.000000000     0.239734078  0.239734078 -0.239734078

  length of vectors
     2.949546378  2.949546378  2.949546378     0.415231603  0.415231603  0.415231603

 FORCES acting on ions
    electron-ion (+dipol)            ewald-force                    non-local-force                 convergence-correction
   -.892E-14 -.687E-14 -.127E-13   -.259E-15 0.167E-14 -.129E-14   0.207E-24 0.207E-24 0.207E-24   -.339E-15 0.284E-14 0.470E-15
   -.892E-14 -.687E-14 -.127E-13   -.259E-15 0.167E-14 -.129E-14   0.207E-24 0.207E-24 0.207E-24   -.339E-15 0.284E-14 0.470E-15

 POSITION                                       TOTAL-FORCE (eV/Angst)
      0.00000      0.00000      0.00000        -0.000000      0.000000      0.000000
    total drift:                               -0.000000     -0.000000     -0.000000

  FREE ENERGIE OF THE ION-ELECTRON SYSTEM (eV)
  free  energy   TOTEN  =        -3.21967785 eV

  energy  without entropy=       -3.21967785  energy(sigma->0) =       -3.21967785

 total charge

# of ion       s       p       d       tot
    1        0.520   0.309   8.760   9.588

 BZINTS: Fermi energy:  8.508013; 11.000000 electrons
         Band energy:  49.532078;  BLOECHL correction: -0.038066