 vasp.5.4.4.18Apr17-6-g9f103f2a35 (build Apr 05 2022 19:15:58) complex

 executed on             LinuxIFC date 2024.04.03  02:05:55

 INCAR:
 POTCAR:    PW_PBE Au 04Oct2007

 POTCAR:    PW_PBE Au 04Oct2007
   VRHFIN =Au: s1d10

   TITEL  = PAW_PBE Au 04Oct2007
   POMASS =  196.966; ZVAL   =   11.000    mass and valenz
   ENMAX  =  229.943; ENMIN  =  172.457 eV

  PW_PBE Au 04Oct2007                   :

 POSCAR: Au1
  positions in direct lattice
  velocities in cartesian coordinates
 exchange correlation table for  LEXCH =        8
   RHO(1)=    0.500       N(1)  =     2000
   RHO(2)=  100.500       N(2)  =     4000

 ion  position               nearest neighbor table
   1  0.000  0.000  0.000-

  LATTYP: Found a face centered cubic cell.
 ALAT       =     4.1712884904

  Lattice vectors:

 A1 = (   0.0000000000,   2.0856442452,   2.0856442452)
 A2 = (   2.0856442452,   0.0000000000,   2.0856442452)
 A3 = (   2.0856442452,   2.0856442452,   0.0000000000)

Analysis of symmetry for initial positions (statically):
 Subroutine PRICEL returns:
 Original cell was already a primitive cell.

 Routine SETGRP: Setting up the symmetry group for a
 face centered cubic supercell.

 Subroutine GETGRP returns: Found 48 space group operations
 (whereof 48 operations were pure point group operations)
 out of a pool of 48 trial point group operations.

The static configuration has the point symmetry O_h .

Analysis of symmetry for dynamics (positions and initial velocities):
 Subroutine PRICEL returns:
 Original cell was already a primitive cell.

 Routine SETGRP: Setting up the symmetry group for a
 face centered cubic supercell.

 Subroutine GETGRP returns: Found 48 space group operations
 (whereof 48 operations were pure point group operations)
 out of a pool of 48 trial point group operations.

The dynamic configuration has the point symmetry O_h .

 Subroutine INISYM returns: Found 48 space group operations
 (whereof 48 operations are pure point group operations),
 and found     1 'primitive' translations

 KPOINTS: kpoints along symmetry lines
  interpolating k-points between supplied coordinates
  k-points in reciprocal lattice
Space group operators:
 irot       det(A)        alpha          n_x          n_y          n_z        tau_x        tau_y        tau_z
    1     1.000000     0.000000     1.000000     0.000000     0.000000     0.000000     0.000000     0.000000
    2    -1.000000     0.000000     1.000000     0.000000     0.000000     0.000000     0.000000     0.000000
    3     1.000000   120.000000    -0.577350    -0.577350    -0.577350     0.000000     0.000000     0.000000
    4    -1.000000   120.000000    -0.577350    -0.577350    -0.577350     0.000000     0.000000     0.000000
    5     1.000000   120.000000     0.577350     0.577350     0.577350     0.000000     0.000000     0.000000
    6    -1.000000   120.000000     0.577350     0.577350     0.577350     0.000000     0.000000     0.000000
    7     1.000000    90.000000     0.000000     0.000000    -1.000000     0.000000     0.000000     0.000000
    8    -1.000000    90.000000     0.000000     0.000000    -1.000000     0.000000     0.000000     0.000000
    9     1.000000   180.000000     0.000000     0.707107     0.707107     0.000000     0.000000     0.000000
   10    -1.000000   180.000000     0.000000     0.707107     0.707107     0.000000     0.000000     0.000000
   11     1.000000    90.000000     0.000000     1.000000     0.000000     0.000000     0.000000     0.000000
   12    -1.000000    90.000000     0.000000     1.000000     0.000000     0.000000     0.000000     0.000000
   13     1.000000   180.000000     0.000000     0.000000     1.000000     0.000000     0.000000     0.000000
   14    -1.000000   180.000000     0.000000     0.000000     1.000000     0.000000     0.000000     0.000000
   15     1.000000   120.000000    -0.577350     0.577350     0.577350     0.000000     0.000000     0.000000
   16    -1.000000   120.000000    -0.577350     0.577350     0.577350     0.000000     0.000000     0.000000
   17     1.000000   120.000000    -0.577350     0.577350    -0.577350     0.000000     0.000000     0.000000
   18    -1.000000   120.000000    -0.577350     0.577350    -0.577350     0.000000     0.000000     0.000000
   19     1.000000    90.000000     0.000000     0.000000     1.000000     0.000000     0.000000     0.000000
   20    -1.000000    90.000000     0.000000     0.000000     1.000000     0.000000     0.000000     0.000000
   21     1.000000    90.000000    -1.000000     0.000000     0.000000     0.000000     0.000000     0.000000
   22    -1.000000    90.000000    -1.000000     0.000000     0.000000     0.000000     0.000000     0.000000
   23     1.000000   180.000000     0.707107     0.000000     0.707107     0.000000     0.000000     0.000000
   24    -1.000000   180.000000     0.707107     0.000000     0.707107     0.000000     0.000000     0.000000
   25     1.000000   120.000000     0.577350    -0.577350     0.577350     0.000000     0.000000     0.000000
   26    -1.000000   120.000000     0.577350    -0.577350     0.577350     0.000000     0.000000     0.000000
   27     1.000000   120.000000    -0.577350    -0.577350     0.577350     0.000000     0.000000     0.000000
   28    -1.000000   120.000000    -0.577350    -0.577350     0.577350     0.000000     0.000000     0.000000
   29     1.000000   180.000000     1.000000     0.000000     0.000000     0.000000     0.000000     0.000000
   30    -1.000000   180.000000     1.000000     0.000000     0.000000     0.000000     0.000000     0.000000
   31     1.000000    90.000000     0.000000    -1.000000     0.000000     0.000000     0.000000     0.000000
   32    -1.000000    90.000000     0.000000    -1.000000     0.000000     0.000000     0.000000     0.000000
   33     1.000000   180.000000     0.707107     0.707107     0.000000     0.000000     0.000000     0.000000
   34    -1.000000   180.000000     0.707107     0.707107     0.000000     0.000000     0.000000     0.000000
   35     1.000000    90.000000     1.000000     0.000000     0.000000     0.000000     0.000000     0.000000
   36    -1.000000    90.000000     1.000000     0.000000     0.000000     0.000000     0.000000     0.000000
   37     1.000000   120.000000     0.577350    -0.577350    -0.577350     0.000000     0.000000     0.000000
   38    -1.000000   120.000000     0.577350    -0.577350    -0.577350     0.000000     0.000000     0.000000
   39     1.000000   180.000000     0.000000     1.000000     0.000000     0.000000     0.000000     0.000000
   40    -1.000000   180.000000     0.000000     1.000000     0.000000     0.000000     0.000000     0.000000
   41     1.000000   120.000000     0.577350     0.577350    -0.577350     0.000000     0.000000     0.000000
   42    -1.000000   120.000000     0.577350     0.577350    -0.577350     0.000000     0.000000     0.000000
   43     1.000000   180.000000     0.000000    -0.707107     0.707107     0.000000     0.000000     0.000000
   44    -1.000000   180.000000     0.000000    -0.707107     0.707107     0.000000     0.000000     0.000000
   45     1.000000   180.000000     0.707107    -0.707107     0.000000     0.000000     0.000000     0.000000
   46    -1.000000   180.000000     0.707107    -0.707107     0.000000     0.000000     0.000000     0.000000
   47     1.000000   180.000000     0.707107     0.000000    -0.707107     0.000000     0.000000     0.000000
   48    -1.000000   180.000000     0.707107     0.000000    -0.707107     0.000000     0.000000     0.000000

 SYSTEM =  Au
 POSCAR =  Au1

 Startparameter for this run:
   NWRITE =      2    write-flag & timer
   PREC   = a         normal or accurate (medium, high low for compatibility)
   ISTART =      0    job   : 0-new  1-cont  2-samecut
   ICHARG =     11    charge: 1-file 2-atom 10-const
   ISPIN  =      1    spin polarized calculation?
   LNONCOLLINEAR =      F non collinear calculations
   LSORBIT =      F    spin-orbit coupling
   INIWAV =      1    electr: 0-lowe 1-rand  2-diag
   LASPH  =      T    aspherical Exc in radial PAW
   METAGGA=      F    non-selfconsistent MetaGGA calc.

 Electronic Relaxation 1
   ENCUT  =  600.0 eV  44.10 Ry    6.64 a.u.   5.89  5.89  5.89*2*pi/ulx,y,z
   ENINI  =  600.0     initial cutoff
   ENAUG  =  356.7 eV  augmentation charge cutoff
   NELM   =    500;   NELMIN=  5; NELMDL=  0     # of ELM steps
   EDIFF  = 0.1E-06   stopping-criterion for ELM
   LREAL  =      F    real-space projection
   NLSPLINE    = F    spline interpolate recip. space projectors
   LCOMPAT=      F    compatible to vasp.4.4
   GGA_COMPAT  = T    GGA compatible to vasp.4.4-vasp.4.6
   LMAXPAW     = -100 max onsite density
   LMAXMIX     =    2 max onsite mixed and CHGCAR
   VOSKOWN=      0    Vosko Wilk Nusair interpolation
   ROPT   =    0.00000
 Ionic relaxation
   EDIFFG = -.8E-02   stopping-criterion for IOM
   NSW    =      0    number of steps for IOM
   NBLOCK =      1;   KBLOCK =      1    inner block; outer block
   IBRION =     -1    ionic relax: 0-MD 1-quasi-New 2-CG
   NFREE  =      0    steps in history (QN), initial steepest desc. (CG)
   ISIF   =      2    stress and relaxation
   IWAVPR =     10    prediction:  0-non 1-charg 2-wave 3-comb
   ISYM   =      2    0-nonsym 1-usesym 2-fastsym
   LCORR  =      T    Harris-Foulkes like correction to forces

   POTIM  = 0.5000    time-step for ionic-motion
   TEIN   =    0.0    initial temperature
   TEBEG  =    0.0;   TEEND  =   0.0 temperature during run
   SMASS  =  -3.00    Nose mass-parameter (am)
   estimated Nose-frequenzy (Omega)   =  0.10E-29 period in steps =****** mass=  -0.199E-27a.u.
   SCALEE = 1.0000    scale energy and forces
   NPACO  =    256;   APACO  = 16.0  distance and # of slots for P.C.
   PSTRESS=    0.0 pullay stress

  Mass of Ions in am
   POMASS = 196.97
  Ionic Valenz
   ZVAL   =  11.00
  Atomic Wigner-Seitz radii
  virtual crystal weights
   VCA    =   1.00
   NELECT =      11.0000    total number of electrons
   NUPDOWN=      -1.0000    fix difference up-down

 DOS related values:
   EMIN   =  10.00;   EMAX   =-10.00  energy-range for DOS
   EFERMI =   0.00
   ISMEAR =     1;   SIGMA  =   0.00  broadening in eV -4-tet -1-fermi 0-gaus

 Electronic relaxation 2 (details)
   IALGO  =     38    algorithm
   LDIAG  =      T    sub-space diagonalisation (order eigenvalues)
   LSUBROT=      F    optimize rotation matrix (better conditioning)
   TURBO    =      0    0=normal 1=particle mesh
   IRESTART =      0    0=no restart 2=restart with 2 vectors
   NREBOOT  =      0    no. of reboots
   NMIN     =      0    reboot dimension
   EREF     =   0.00    reference energy to select bands
   IMIX   =      4    mixing-type and parameters
     AMIX     =   0.20;   BMIX     =  0.00
     AMIX_MAG =   0.80;   BMIX_MAG =  0.00
     AMIN     =   0.10
     WC   =   100.;   INIMIX=   1;  MIXPRE=   1;  MAXMIX= -45

 Intra band minimization:
   WEIMIN = 0.0000     energy-eigenvalue tresh-hold
   EBREAK =  0.16E-08  absolut break condition
   DEPER  =   0.30     relativ break condition

   TIME   =   0.40     timestep for ELM

  volume/ion in A,a.u.               =      18.14       122.45
[...]
   0.52040816  0.04081633  0.52040816       0.002
   0.51785714  0.03571429  0.51785714       0.002
   0.51530612  0.03061224  0.51530612       0.002
   0.51275510  0.02551020  0.51275510       0.002
   0.51020408  0.02040816  0.51020408       0.002
   0.50765306  0.01530612  0.50765306       0.002
   0.50510204  0.01020408  0.50510204       0.002
   0.50255102  0.00510204  0.50255102       0.002
   0.50000000  0.00000000  0.50000000       0.002

 position of ions in fractional coordinates (direct lattice)
   0.00000000  0.00000000  0.00000000

 position of ions in cartesian coordinates  (Angst):
   0.00000000  0.00000000  0.00000000

 k-point  1 :   0.0000 0.0000 0.0000  plane waves:     609
 k-point  2 :   0.0102 0.0000 0.0102  plane waves:     609
 k-point  3 :   0.0204 0.0000 0.0204  plane waves:     609
 k-point  4 :   0.0306 0.0000 0.0306  plane waves:     609
 k-point  5 :   0.0408 0.0000 0.0408  plane waves:     609
 k-point  6 :   0.0510 0.0000 0.0510  plane waves:     605
 k-point  7 :   0.0612 0.0000 0.0612  plane waves:     601
 k-point  8 :   0.0714 0.0000 0.0714  plane waves:     601
 k-point  9 :   0.0816 0.0000 0.0816  plane waves:     601
 k-point 10 :   0.0918 0.0000 0.0918  plane waves:     593
 k-point 11 :   0.1020 0.0000 0.1020  plane waves:     593
 k-point 12 :   0.1122 0.0000 0.1122  plane waves:     597
 k-point 13 :   0.1224 0.0000 0.1224  plane waves:     597
 k-point 14 :   0.1327 0.0000 0.1327  plane waves:     597
 k-point 15 :   0.1429 0.0000 0.1429  plane waves:     597
 k-point 16 :   0.1531 0.0000 0.1531  plane waves:     597
 k-point 17 :   0.1633 0.0000 0.1633  plane waves:     593
 k-point 18 :   0.1735 0.0000 0.1735  plane waves:     592
 k-point 19 :   0.1837 0.0000 0.1837  plane waves:     592
 k-point 20 :   0.1939 0.0000 0.1939  plane waves:     584
 k-point 21 :   0.2041 0.0000 0.2041  plane waves:     584
 k-point 22 :   0.2143 0.0000 0.2143  plane waves:     592
 k-point 23 :   0.2245 0.0000 0.2245  plane waves:     592
 k-point 24 :   0.2347 0.0000 0.2347  plane waves:     592
 k-point 25 :   0.2449 0.0000 0.2449  plane waves:     592
 k-point 26 :   0.2551 0.0000 0.2551  plane waves:     592
 k-point 27 :   0.2653 0.0000 0.2653  plane waves:     592
 k-point 28 :   0.2755 0.0000 0.2755  plane waves:     592
 k-point 29 :   0.2857 0.0000 0.2857  plane waves:     592
 k-point 30 :   0.2959 0.0000 0.2959  plane waves:     600
 k-point 31 :   0.3061 0.0000 0.3061  plane waves:     612
 k-point 32 :   0.3163 0.0000 0.3163  plane waves:     612
 k-point 33 :   0.3265 0.0000 0.3265  plane waves:     612
 k-point 34 :   0.3367 0.0000 0.3367  plane waves:     612
 k-point 35 :   0.3469 0.0000 0.3469  plane waves:     616
 k-point 36 :   0.3571 0.0000 0.3571  plane waves:     608
 k-point 37 :   0.3673 0.0000 0.3673  plane waves:     608
 k-point 38 :   0.3776 0.0000 0.3776  plane waves:     608
 k-point 39 :   0.3878 0.0000 0.3878  plane waves:     608
 k-point 40 :   0.3980 0.0000 0.3980  plane waves:     612
 k-point 41 :   0.4082 0.0000 0.4082  plane waves:     620
 k-point 42 :   0.4184 0.0000 0.4184  plane waves:     620
 k-point 43 :   0.4286 0.0000 0.4286  plane waves:     620
 k-point 44 :   0.4388 0.0000 0.4388  plane waves:     620
 k-point 45 :   0.4490 0.0000 0.4490  plane waves:     620
 k-point 46 :   0.4592 0.0000 0.4592  plane waves:     620
 k-point 47 :   0.4694 0.0000 0.4694  plane waves:     620
 k-point 48 :   0.4796 0.0000 0.4796  plane waves:     612
 k-point 49 :   0.4898 0.0000 0.4898  plane waves:     620
 k-point 50 :   0.5000 0.0000 0.5000  plane waves:     620
 k-point 51 :   0.5000 0.0000 0.5000  plane waves:     620
 k-point 52 :   0.5000 0.0051 0.5051  plane waves:     620
 k-point 53 :   0.5000 0.0102 0.5102  plane waves:     620
 k-point 54 :   0.5000 0.0153 0.5153  plane waves:     616
 k-point 55 :   0.5000 0.0204 0.5204  plane waves:     616
 k-point 56 :   0.5000 0.0255 0.5255  plane waves:     612
 k-point 57 :   0.5000 0.0306 0.5306  plane waves:     616
 k-point 58 :   0.5000 0.0357 0.5357  plane waves:     616
 k-point 59 :   0.5000 0.0408 0.5408  plane waves:     616
 k-point 60 :   0.5000 0.0459 0.5459  plane waves:     616
[...]
 k-point 85 :   0.5000 0.1735 0.6735  plane waves:     614
 k-point 86 :   0.5000 0.1786 0.6786  plane waves:     610
 k-point 87 :   0.5000 0.1837 0.6837  plane waves:     610
 k-point 88 :   0.5000 0.1888 0.6888  plane waves:     610
 k-point 89 :   0.5000 0.1939 0.6939  plane waves:     610
 k-point 90 :   0.5000 0.1990 0.6990  plane waves:     610
 k-point 91 :   0.5000 0.2041 0.7041  plane waves:     610
 k-point 92 :   0.5000 0.2092 0.7092  plane waves:     610
 k-point 93 :   0.5000 0.2143 0.7143  plane waves:     610
 k-point 94 :   0.5000 0.2194 0.7194  plane waves:     610
 k-point 95 :   0.5000 0.2245 0.7245  plane waves:     610
 k-point 96 :   0.5000 0.2296 0.7296  plane waves:     610
 k-point 97 :   0.5000 0.2347 0.7347  plane waves:     610
 k-point 98 :   0.5000 0.2398 0.7398  plane waves:     610
 k-point 99 :   0.5000 0.2449 0.7449  plane waves:     616
 k-point ** :   0.5000 0.2500 0.7500  plane waves:     616
 k-point ** :   0.5000 0.2500 0.7500  plane waves:     616
 k-point ** :   0.4974 0.2526 0.7500  plane waves:     616
 k-point ** :   0.4949 0.2551 0.7500  plane waves:     613
 k-point ** :   0.4923 0.2577 0.7500  plane waves:     611
 k-point ** :   0.4898 0.2602 0.7500  plane waves:     611
 k-point ** :   0.4872 0.2628 0.7500  plane waves:     611
 k-point ** :   0.4847 0.2653 0.7500  plane waves:     611
 k-point ** :   0.4821 0.2679 0.7500  plane waves:     611
 k-point ** :   0.4796 0.2704 0.7500  plane waves:     611
 k-point ** :   0.4770 0.2730 0.7500  plane waves:     611
 k-point ** :   0.4745 0.2755 0.7500  plane waves:     611
 k-point ** :   0.4719 0.2781 0.7500  plane waves:     611
 k-point ** :   0.4694 0.2806 0.7500  plane waves:     611
 k-point ** :   0.4668 0.2832 0.7500  plane waves:     611
 k-point ** :   0.4643 0.2857 0.7500  plane waves:     611
 k-point ** :   0.4617 0.2883 0.7500  plane waves:     611
 k-point ** :   0.4592 0.2908 0.7500  plane waves:     611
 k-point ** :   0.4566 0.2934 0.7500  plane waves:     611
 k-point ** :   0.4541 0.2959 0.7500  plane waves:     615
 k-point ** :   0.4515 0.2985 0.7500  plane waves:     612
 k-point ** :   0.4490 0.3010 0.7500  plane waves:     612
 k-point ** :   0.4464 0.3036 0.7500  plane waves:     612
 k-point ** :   0.4439 0.3061 0.7500  plane waves:     610
 k-point ** :   0.4413 0.3087 0.7500  plane waves:     610
 k-point ** :   0.4388 0.3112 0.7500  plane waves:     610
 k-point ** :   0.4362 0.3138 0.7500  plane waves:     610
 k-point ** :   0.4337 0.3163 0.7500  plane waves:     610
 k-point ** :   0.4311 0.3189 0.7500  plane waves:     610
 k-point ** :   0.4286 0.3214 0.7500  plane waves:     608
 k-point ** :   0.4260 0.3240 0.7500  plane waves:     610
 k-point ** :   0.4235 0.3265 0.7500  plane waves:     610
 k-point ** :   0.4209 0.3291 0.7500  plane waves:     610
 k-point ** :   0.4184 0.3316 0.7500  plane waves:     610
 k-point ** :   0.4158 0.3342 0.7500  plane waves:     610
 k-point ** :   0.4133 0.3367 0.7500  plane waves:     610
 k-point ** :   0.4107 0.3393 0.7500  plane waves:     610
 k-point ** :   0.4082 0.3418 0.7500  plane waves:     610
 k-point ** :   0.4056 0.3444 0.7500  plane waves:     610
 k-point ** :   0.4031 0.3469 0.7500  plane waves:     606
 k-point ** :   0.4005 0.3495 0.7500  plane waves:     606
 k-point ** :   0.3980 0.3520 0.7500  plane waves:     606
 k-point ** :   0.3954 0.3546 0.7500  plane waves:     606
 k-point ** :   0.3929 0.3571 0.7500  plane waves:     606
 k-point ** :   0.3903 0.3597 0.7500  plane waves:     610
 k-point ** :   0.3878 0.3622 0.7500  plane waves:     610
 k-point ** :   0.3852 0.3648 0.7500  plane waves:     610
 k-point ** :   0.3827 0.3673 0.7500  plane waves:     618
 k-point ** :   0.3801 0.3699 0.7500  plane waves:     618
 k-point ** :   0.3776 0.3724 0.7500  plane waves:     618
 k-point ** :   0.3750 0.3750 0.7500  plane waves:     618
 k-point ** :   0.3750 0.3750 0.7500  plane waves:     618
 k-point ** :   0.3673 0.3673 0.7347  plane waves:     618
 k-point ** :   0.3597 0.3597 0.7194  plane waves:     606
 k-point ** :   0.3520 0.3520 0.7041  plane waves:     606
 k-point ** :   0.3444 0.3444 0.6888  plane waves:     606
 k-point ** :   0.3367 0.3367 0.6735  plane waves:     606
 k-point ** :   0.3291 0.3291 0.6582  plane waves:     606
 k-point ** :   0.3214 0.3214 0.6429  plane waves:     606
 k-point ** :   0.3138 0.3138 0.6276  plane waves:     606
[...]
 k-point ** :   0.5357 0.0714 0.5357  plane waves:     612
 k-point ** :   0.5332 0.0663 0.5332  plane waves:     612
 k-point ** :   0.5306 0.0612 0.5306  plane waves:     612
 k-point ** :   0.5281 0.0561 0.5281  plane waves:     612
 k-point ** :   0.5255 0.0510 0.5255  plane waves:     612
 k-point ** :   0.5230 0.0459 0.5230  plane waves:     612
 k-point ** :   0.5204 0.0408 0.5204  plane waves:     612
 k-point ** :   0.5179 0.0357 0.5179  plane waves:     608
 k-point ** :   0.5153 0.0306 0.5153  plane waves:     616
 k-point ** :   0.5128 0.0255 0.5128  plane waves:     616
 k-point ** :   0.5102 0.0204 0.5102  plane waves:     616
 k-point ** :   0.5077 0.0153 0.5077  plane waves:     620
 k-point ** :   0.5051 0.0102 0.5051  plane waves:     620
 k-point ** :   0.5026 0.0051 0.5026  plane waves:     620
 k-point ** :   0.5000 0.0000 0.5000  plane waves:     620

 maximum and minimum number of plane-waves per node :        85       66

 maximum number of plane-waves:       620
 maximum index in each direction:
   IXMAX=    5   IYMAX=    5   IZMAX=    5
   IXMIN=   -6   IYMIN=   -6   IZMIN=   -6

 parallel 3D FFT for wavefunctions:
    minimum data exchange during FFTs selected (reduces bandwidth)
 parallel 3D FFT for charge:
    minimum data exchange during FFTs selected (reduces bandwidth)

 initial charge density was supplied:
 number of electron      11.0000000 magnetization
 keeping initial charge density in first step

 Maximum index for augmentation-charges         8779 (set IRDMAX)

 First call to EWALD:  gamma=   0.675
 Maximum number of real-space cells 3x 3x 3
 Maximum number of reciprocal cells 3x 3x 3

--------------------------------------- Iteration      1(   1)  ---------------------------------------

 eigenvalue-minimisations  : 16040
 total energy-change (2. order) : 0.6137525E+02  (-0.5695624E+03)
 number of electron      11.0000000 magnetization
 augmentation part       11.0000000 magnetization

 Free energy of the ion-electron system (eV)
  alpha Z        PSCENC =        64.19470378
  Ewald energy   TEWEN  =      -957.56330713
  -Hartree energ DENC   =      -121.14166636
  -exchange      EXHF   =         0.00000000
  -V(xc)+E(xc)   XCENC  =        14.95057759
  PAW double counting   =      1018.74803672     -998.02479061
  entropy T*S    EENTRO =         0.00000035
  eigenvalues    EBANDS =       114.12625143
  atomic energy  EATOM  =       926.08544073
  Solvation  Ediel_sol  =         0.00000000
  free energy    TOTEN  =        61.37524649 eV

  energy without entropy =       61.37524614  energy(sigma->0) =       61.37524638

[...]

 eigenvalue-minimisations  : 21704
 total energy-change (2. order) :-0.6180688E+02  (-0.5739709E+02)
 number of electron      11.0000000 magnetization
 augmentation part       11.0000000 magnetization

[...]

--------------------------------------- Iteration      1(   7)  ---------------------------------------

 eigenvalue-minimisations  : 19584
 total energy-change (2. order) :-0.2352294E-08  (-0.3312827E-08)
 number of electron      11.0000000 magnetization
 augmentation part       11.0000000 magnetization

 Free energy of the ion-electron system (eV)
  alpha Z        PSCENC =        64.19470378
  Ewald energy   TEWEN  =      -957.56330713
  -Hartree energ DENC   =      -121.14166636
  -exchange      EXHF   =         0.00000000
  -V(xc)+E(xc)   XCENC  =        14.95057759
  PAW double counting   =      1018.74803672     -998.02479061
  entropy T*S    EENTRO =         0.00000002
  eigenvalues    EBANDS =        51.28204204
  atomic energy  EATOM  =       926.08544073
  Solvation  Ediel_sol  =         0.00000000
  free energy    TOTEN  =        -1.46896322 eV

  energy without entropy =       -1.46896324  energy(sigma->0) =       -1.46896323

 average (electrostatic) potential at core
  the test charge radii are     1.2098
  (the norm of the test charge is              1.0000)
       1 -64.9341

 E-fermi :  10.4728     XC(G=0): -12.3440     alpha+bet :-13.0865

 k-point     1 :       0.0000    0.0000    0.0000
  band No.  band energies     occupation
      1      -0.7474      2.00000
      2       4.0975      2.00000
      3       4.0975      2.00000
      4       4.0975      2.00000
      5       5.4411      2.00000
      6       5.4411      2.00000
      7      23.0519      0.00000
      8      26.6902      0.00000
      9      26.6902      0.00000
     10      26.6902      0.00000
     11      31.4007      0.00000
     12      35.3878      0.00000
     13      35.3878      0.00000
     14      35.3878      0.00000
     15      36.7277      0.00000
     16      36.7277      0.00000

[...]

 k-point   500 :       0.5000    0.0000    0.5000
  band No.  band energies     occupation
      1       1.9547      2.00000
      2       2.2447      2.00000
      3       6.4733      2.00000
      4       6.8156      2.00000
      5       6.8156      2.00000
      6       9.6588      2.00000
      7      13.7421      0.00000
      8      18.2911      0.00000
      9      18.2911      0.00000
     10      24.9983      0.00000
     11      27.4373      0.00000
     12      35.4961      0.00000
     13      40.3544      0.00000
     14      41.7914      0.00000
     15      41.7914      0.00000
     16      44.3913      0.00000

 soft charge-density along one line, spin component           1
         0         1         2         3         4         5         6         7         8         9
 total charge-density along one line

------------------------ aborting loop because EDIFF is reached ----------------------------------------

 total charge

# of ion       s       p       d       tot
    1        0.359   0.421   8.789   9.569

  FORCE on cell =-STRESS in cart. coord.  units (eV):
  Direction    XX          YY          ZZ          XY          YZ          ZX
  Alpha Z    64.19470    64.19470    64.19470
  Ewald    -319.18778  -319.18778  -319.18778     0.00000    -0.00000    -0.00000
  Hartree    40.51542    40.51542    40.51542     0.00000     0.00000     0.00000
  E(xc)     -49.45367   -49.45367   -49.45367     0.00000     0.00000     0.00000
  Local      45.16270    45.16270    45.16270    -0.00001    -0.00001    -0.00001
  n-local     1.48662    -6.38304    -5.50436    -2.26529    -1.71642    -2.58263
  augment    69.13506    69.13506    69.13506     0.00001     0.00001     0.00001
  Kinetic   152.10803   157.37790   153.21197     1.23529     1.51546     0.76460
  Fock        0.00000     0.00000     0.00000     0.00000     0.00000     0.00000
  Total       1.13214     1.13214     1.13214    -0.00000     0.00000    -0.00000
  in kB      99.96793    99.96793    99.96793    -0.00000     0.00000    -0.00000

 VOLUME and BASIS-vectors are now :
  energy-cutoff  :      600.00
  volume of cell :       18.14
      direct lattice vectors                 reciprocal lattice vectors
     0.000000000  2.085644245  2.085644245    -0.239734078  0.239734078  0.239734078
     2.085644245  0.000000000  2.085644245     0.239734078 -0.239734078  0.239734078
     2.085644245  2.085644245  0.000000000     0.239734078  0.239734078 -0.239734078

  length of vectors
     2.949546378  2.949546378  2.949546378     0.415231603  0.415231603  0.415231603

 FORCES acting on ions
    electron-ion (+dipol)            ewald-force                    non-local-force                 convergence-correction
   -.838E-14 -.953E-14 -.147E-13   -.259E-15 0.167E-14 -.129E-14   0.331E-23 0.331E-23 0.331E-23   -.330E-12 -.459E-12 0.352E-12
   -.838E-14 -.953E-14 -.147E-13   -.259E-15 0.167E-14 -.129E-14   0.331E-23 0.331E-23 0.331E-23   -.330E-12 -.459E-12 0.352E-12

 POSITION                                       TOTAL-FORCE (eV/Angst)
      0.00000      0.00000      0.00000         0.000000      0.000000      0.000000
    total drift:                               -0.000000     -0.000000      0.000000

  FREE ENERGIE OF THE ION-ELECTRON SYSTEM (eV)
  free  energy   TOTEN  =        -1.46896322 eV

  energy  without entropy=       -1.46896324  energy(sigma->0) =       -1.46896323

 total charge

# of ion       s       p       d       tot
    1        0.359   0.421   8.789   9.569