 vasp.5.4.4.18Apr17-6-g9f103f2a35 (build Mar 08 2022 14:55:45) complex

 executed on             LinuxIFC date 2024.04.08  23:56:32

 INCAR:
 POTCAR:    PW_PBE Au 04Oct2007

 POTCAR:    PW_PBE Au 04Oct2007
   VRHFIN =Au: s1d10

   TITEL  = PAW_PBE Au 04Oct2007
   POMASS =  196.966; ZVAL   =   11.000    mass and valenz
   ENMAX  =  229.943; ENMIN  =  172.457 eV

  PW_PBE Au 04Oct2007                   :

 POSCAR: Au1
  positions in direct lattice
  velocities in cartesian coordinates
 exchange correlation table for  LEXCH =        8
   RHO(1)=    0.500       N(1)  =     2000
   RHO(2)=  100.500       N(2)  =     4000

 ion  position               nearest neighbor table
   1  0.000  0.000  0.000-

  LATTYP: Found a face centered cubic cell.
 ALAT       =     4.1712884904

  Lattice vectors:

 A1 = (   0.0000000000,   2.0856442452,   2.0856442452)
 A2 = (   2.0856442452,   0.0000000000,   2.0856442452)
 A3 = (   2.0856442452,   2.0856442452,   0.0000000000)

Analysis of symmetry for initial positions (statically):
 Subroutine PRICEL returns:
 Original cell was already a primitive cell.

 Routine SETGRP: Setting up the symmetry group for a
 face centered cubic supercell.

 Subroutine GETGRP returns: Found 48 space group operations
 (whereof 48 operations were pure point group operations)
 out of a pool of 48 trial point group operations.

The static configuration has the point symmetry O_h .

Analysis of symmetry for dynamics (positions and initial velocities):
 Subroutine PRICEL returns:
 Original cell was already a primitive cell.

[...]

The dynamic configuration has the point symmetry O_h .

Analysis of structural, dynamic, and magnetic symmetry:
 Subroutine PRICEL returns:
 Original cell was already a primitive cell.

 Routine SETGRP: Setting up the symmetry group for a
 face centered cubic supercell.

 Subroutine GETGRP returns: Found 48 space group operations
 (whereof 48 operations were pure point group operations)
 out of a pool of 48 trial point group operations.

The (compounded) configuration has the point symmetry O_h .

 Subroutine INISYM returns: Found 48 space group operations
 (whereof 48 operations are pure point group operations),
 and found     1 'primitive' translations

 KPOINTS: kpoints along symmetry lines
  interpolating k-points between supplied coordinates
  k-points in reciprocal lattice
Space group operators:
 irot       det(A)        alpha          n_x          n_y          n_z        tau_x        tau_y        tau_z
    1     1.000000     0.000000     1.000000     0.000000     0.000000     0.000000     0.000000     0.000000
    2    -1.000000     0.000000     1.000000     0.000000     0.000000     0.000000     0.000000     0.000000
    3     1.000000   120.000000    -0.577350    -0.577350    -0.577350     0.000000     0.000000     0.000000
    4    -1.000000   120.000000    -0.577350    -0.577350    -0.577350     0.000000     0.000000     0.000000
    5     1.000000   120.000000     0.577350     0.577350     0.577350     0.000000     0.000000     0.000000
    6    -1.000000   120.000000     0.577350     0.577350     0.577350     0.000000     0.000000     0.000000
    7     1.000000    90.000000     0.000000     0.000000    -1.000000     0.000000     0.000000     0.000000
    8    -1.000000    90.000000     0.000000     0.000000    -1.000000     0.000000     0.000000     0.000000
    9     1.000000   180.000000     0.000000     0.707107     0.707107     0.000000     0.000000     0.000000
   10    -1.000000   180.000000     0.000000     0.707107     0.707107     0.000000     0.000000     0.000000
   11     1.000000    90.000000     0.000000     1.000000     0.000000     0.000000     0.000000     0.000000
   12    -1.000000    90.000000     0.000000     1.000000     0.000000     0.000000     0.000000     0.000000
   13     1.000000   180.000000     0.000000     0.000000     1.000000     0.000000     0.000000     0.000000
   14    -1.000000   180.000000     0.000000     0.000000     1.000000     0.000000     0.000000     0.000000
   15     1.000000   120.000000    -0.577350     0.577350     0.577350     0.000000     0.000000     0.000000
   16    -1.000000   120.000000    -0.577350     0.577350     0.577350     0.000000     0.000000     0.000000
   17     1.000000   120.000000    -0.577350     0.577350    -0.577350     0.000000     0.000000     0.000000
   18    -1.000000   120.000000    -0.577350     0.577350    -0.577350     0.000000     0.000000     0.000000
   19     1.000000    90.000000     0.000000     0.000000     1.000000     0.000000     0.000000     0.000000
   20    -1.000000    90.000000     0.000000     0.000000     1.000000     0.000000     0.000000     0.000000
   21     1.000000    90.000000    -1.000000     0.000000     0.000000     0.000000     0.000000     0.000000
   22    -1.000000    90.000000    -1.000000     0.000000     0.000000     0.000000     0.000000     0.000000
   23     1.000000   180.000000     0.707107     0.000000     0.707107     0.000000     0.000000     0.000000
   24    -1.000000   180.000000     0.707107     0.000000     0.707107     0.000000     0.000000     0.000000
   25     1.000000   120.000000     0.577350    -0.577350     0.577350     0.000000     0.000000     0.000000
   26    -1.000000   120.000000     0.577350    -0.577350     0.577350     0.000000     0.000000     0.000000
   27     1.000000   120.000000    -0.577350    -0.577350     0.577350     0.000000     0.000000     0.000000
   28    -1.000000   120.000000    -0.577350    -0.577350     0.577350     0.000000     0.000000     0.000000
   29     1.000000   180.000000     1.000000     0.000000     0.000000     0.000000     0.000000     0.000000
   30    -1.000000   180.000000     1.000000     0.000000     0.000000     0.000000     0.000000     0.000000
   31     1.000000    90.000000     0.000000    -1.000000     0.000000     0.000000     0.000000     0.000000
   32    -1.000000    90.000000     0.000000    -1.000000     0.000000     0.000000     0.000000     0.000000
   33     1.000000   180.000000     0.707107     0.707107     0.000000     0.000000     0.000000     0.000000
   34    -1.000000   180.000000     0.707107     0.707107     0.000000     0.000000     0.000000     0.000000
   35     1.000000    90.000000     1.000000     0.000000     0.000000     0.000000     0.000000     0.000000
   36    -1.000000    90.000000     1.000000     0.000000     0.000000     0.000000     0.000000     0.000000
   37     1.000000   120.000000     0.577350    -0.577350    -0.577350     0.000000     0.000000     0.000000
   38    -1.000000   120.000000     0.577350    -0.577350    -0.577350     0.000000     0.000000     0.000000
   39     1.000000   180.000000     0.000000     1.000000     0.000000     0.000000     0.000000     0.000000
   40    -1.000000   180.000000     0.000000     1.000000     0.000000     0.000000     0.000000     0.000000
   41     1.000000   120.000000     0.577350     0.577350    -0.577350     0.000000     0.000000     0.000000
   42    -1.000000   120.000000     0.577350     0.577350    -0.577350     0.000000     0.000000     0.000000
   43     1.000000   180.000000     0.000000    -0.707107     0.707107     0.000000     0.000000     0.000000
   44    -1.000000   180.000000     0.000000    -0.707107     0.707107     0.000000     0.000000     0.000000
   45     1.000000   180.000000     0.707107    -0.707107     0.000000     0.000000     0.000000     0.000000
   46    -1.000000   180.000000     0.707107    -0.707107     0.000000     0.000000     0.000000     0.000000
   47     1.000000   180.000000     0.707107     0.000000    -0.707107     0.000000     0.000000     0.000000
   48    -1.000000   180.000000     0.707107     0.000000    -0.707107     0.000000     0.000000     0.000000

 SYSTEM =  Au
 POSCAR =  Au1

 Startparameter for this run:
   NWRITE =      2    write-flag & timer
   PREC   = a         normal or accurate (medium, high low for compatibility)
   ISTART =      0    job   : 0-new  1-cont  2-samecut
   ICHARG =     11    charge: 1-file 2-atom 10-const
   ISPIN  =      1    spin polarized calculation?
   LNONCOLLINEAR =      T non collinear calculations
   LSORBIT =      T    spin-orbit coupling
   INIWAV =      1    electr: 0-lowe 1-rand  2-diag
   LASPH  =      T    aspherical Exc in radial PAW
   METAGGA=      F    non-selfconsistent MetaGGA calc.

 Electronic Relaxation 1
   ENCUT  =  600.0 eV  44.10 Ry    6.64 a.u.   5.89  5.89  5.89*2*pi/ulx,y,z
   ENINI  =  600.0     initial cutoff
   ENAUG  =  356.7 eV  augmentation charge cutoff
   NELM   =    500;   NELMIN=  2; NELMDL=  0     # of ELM steps
   EDIFF  = 0.1E-06   stopping-criterion for ELM
   LREAL  =      F    real-space projection
   NLSPLINE    = F    spline interpolate recip. space projectors
   LCOMPAT=      F    compatible to vasp.4.4
   GGA_COMPAT  = T    GGA compatible to vasp.4.4-vasp.4.6
   LMAXPAW     = -100 max onsite density
   LMAXMIX     =    2 max onsite mixed and CHGCAR
   VOSKOWN=      0    Vosko Wilk Nusair interpolation
   ROPT   =    0.00000
 Ionic relaxation
   EDIFFG = -.8E-02   stopping-criterion for IOM
   NSW    =      0    number of steps for IOM
   NBLOCK =      1;   KBLOCK =      1    inner block; outer block
   IBRION =     -1    ionic relax: 0-MD 1-quasi-New 2-CG
   NFREE  =      0    steps in history (QN), initial steepest desc. (CG)
   ISIF   =      2    stress and relaxation
   IWAVPR =     10    prediction:  0-non 1-charg 2-wave 3-comb
   ISYM   =      2    0-nonsym 1-usesym 2-fastsym
   LCORR  =      T    Harris-Foulkes like correction to forces

   POTIM  = 0.5000    time-step for ionic-motion
   TEIN   =    0.0    initial temperature
   TEBEG  =    0.0;   TEEND  =   0.0 temperature during run
   SMASS  =  -3.00    Nose mass-parameter (am)
   estimated Nose-frequenzy (Omega)   =  0.10E-29 period in steps =****** mass=  -0.199E-27a.u.
   SCALEE = 1.0000    scale energy and forces
   NPACO  =    256;   APACO  = 16.0  distance and # of slots for P.C.
   PSTRESS=    0.0 pullay stress

  Mass of Ions in am
   POMASS = 196.97
  Ionic Valenz
   ZVAL   =  11.00
  Atomic Wigner-Seitz radii
  virtual crystal weights
   VCA    =   1.00
   NELECT =      11.0000    total number of electrons
   NUPDOWN=      -1.0000    fix difference up-down

 DOS related values:
   EMIN   =  10.00;   EMAX   =-10.00  energy-range for DOS
   EFERMI =   0.00
   ISMEAR =     0;   SIGMA  =   0.00  broadening in eV -4-tet -1-fermi 0-gaus

 Electronic relaxation 2 (details)
   IALGO  =     38    algorithm
   LDIAG  =      T    sub-space diagonalisation (order eigenvalues)
   LSUBROT=      F    optimize rotation matrix (better conditioning)
   TURBO    =      0    0=normal 1=particle mesh
   IRESTART =      0    0=no restart 2=restart with 2 vectors
   NREBOOT  =      0    no. of reboots
   NMIN     =      0    reboot dimension
   EREF     =   0.00    reference energy to select bands
   IMIX   =      4    mixing-type and parameters
     AMIX     =   0.20;   BMIX     =  0.00
     AMIX_MAG =   0.80;   BMIX_MAG =  0.00
     AMIN     =   0.10
     WC   =   100.;   INIMIX=   1;  MIXPRE=   1;  MAXMIX= -45

 Intra band minimization:
   WEIMIN = 0.0000     energy-eigenvalue tresh-hold
[...]
 k-point 33 :   0.3265 0.0000 0.3265  plane waves:    1224
 k-point 34 :   0.3367 0.0000 0.3367  plane waves:    1224
 k-point 35 :   0.3469 0.0000 0.3469  plane waves:    1232
 k-point 36 :   0.3571 0.0000 0.3571  plane waves:    1216
 k-point 37 :   0.3673 0.0000 0.3673  plane waves:    1216
 k-point 38 :   0.3776 0.0000 0.3776  plane waves:    1216
 k-point 39 :   0.3878 0.0000 0.3878  plane waves:    1216
 k-point 40 :   0.3980 0.0000 0.3980  plane waves:    1224
 k-point 41 :   0.4082 0.0000 0.4082  plane waves:    1240
 k-point 42 :   0.4184 0.0000 0.4184  plane waves:    1240
 k-point 43 :   0.4286 0.0000 0.4286  plane waves:    1240
 k-point 44 :   0.4388 0.0000 0.4388  plane waves:    1240
 k-point 45 :   0.4490 0.0000 0.4490  plane waves:    1240
 k-point 46 :   0.4592 0.0000 0.4592  plane waves:    1240
 k-point 47 :   0.4694 0.0000 0.4694  plane waves:    1240
 k-point 48 :   0.4796 0.0000 0.4796  plane waves:    1224
 k-point 49 :   0.4898 0.0000 0.4898  plane waves:    1240
 k-point 50 :   0.5000 0.0000 0.5000  plane waves:    1240
 k-point 51 :   0.5000 0.0000 0.5000  plane waves:    1240
 k-point 52 :   0.5000 0.0051 0.5051  plane waves:    1240
 k-point 53 :   0.5000 0.0102 0.5102  plane waves:    1240
 k-point 54 :   0.5000 0.0153 0.5153  plane waves:    1232
 k-point 55 :   0.5000 0.0204 0.5204  plane waves:    1232
 k-point 56 :   0.5000 0.0255 0.5255  plane waves:    1224
 k-point 57 :   0.5000 0.0306 0.5306  plane waves:    1232
 k-point 58 :   0.5000 0.0357 0.5357  plane waves:    1232
 k-point 59 :   0.5000 0.0408 0.5408  plane waves:    1232
 k-point 60 :   0.5000 0.0459 0.5459  plane waves:    1232
[...]
 k-point 85 :   0.5000 0.1735 0.6735  plane waves:    1228
 k-point 86 :   0.5000 0.1786 0.6786  plane waves:    1220
 k-point 87 :   0.5000 0.1837 0.6837  plane waves:    1220
 k-point 88 :   0.5000 0.1888 0.6888  plane waves:    1220
 k-point 89 :   0.5000 0.1939 0.6939  plane waves:    1220
 k-point 90 :   0.5000 0.1990 0.6990  plane waves:    1220
 k-point 91 :   0.5000 0.2041 0.7041  plane waves:    1220
 k-point 92 :   0.5000 0.2092 0.7092  plane waves:    1220
 k-point 93 :   0.5000 0.2143 0.7143  plane waves:    1220
 k-point 94 :   0.5000 0.2194 0.7194  plane waves:    1220
 k-point 95 :   0.5000 0.2245 0.7245  plane waves:    1220
 k-point 96 :   0.5000 0.2296 0.7296  plane waves:    1220
 k-point 97 :   0.5000 0.2347 0.7347  plane waves:    1220
 k-point 98 :   0.5000 0.2398 0.7398  plane waves:    1220
 k-point 99 :   0.5000 0.2449 0.7449  plane waves:    1232
 k-point ** :   0.5000 0.2500 0.7500  plane waves:    1232
 k-point ** :   0.5000 0.2500 0.7500  plane waves:    1232
 k-point ** :   0.4974 0.2526 0.7500  plane waves:    1232
 k-point ** :   0.4949 0.2551 0.7500  plane waves:    1226
 k-point ** :   0.4923 0.2577 0.7500  plane waves:    1222
 k-point ** :   0.4898 0.2602 0.7500  plane waves:    1222
 k-point ** :   0.4872 0.2628 0.7500  plane waves:    1222
 k-point ** :   0.4847 0.2653 0.7500  plane waves:    1222
 k-point ** :   0.4821 0.2679 0.7500  plane waves:    1222
 k-point ** :   0.4796 0.2704 0.7500  plane waves:    1222
 k-point ** :   0.4770 0.2730 0.7500  plane waves:    1222
 k-point ** :   0.4745 0.2755 0.7500  plane waves:    1222
 k-point ** :   0.4719 0.2781 0.7500  plane waves:    1222
 k-point ** :   0.4694 0.2806 0.7500  plane waves:    1222
 k-point ** :   0.4668 0.2832 0.7500  plane waves:    1222
 k-point ** :   0.4643 0.2857 0.7500  plane waves:    1222
 k-point ** :   0.4617 0.2883 0.7500  plane waves:    1222
 k-point ** :   0.4592 0.2908 0.7500  plane waves:    1222
 k-point ** :   0.4566 0.2934 0.7500  plane waves:    1222
 k-point ** :   0.4541 0.2959 0.7500  plane waves:    1230
 k-point ** :   0.4515 0.2985 0.7500  plane waves:    1224
 k-point ** :   0.4490 0.3010 0.7500  plane waves:    1224
 k-point ** :   0.4464 0.3036 0.7500  plane waves:    1224
 k-point ** :   0.4439 0.3061 0.7500  plane waves:    1220
 k-point ** :   0.4413 0.3087 0.7500  plane waves:    1220
 k-point ** :   0.4388 0.3112 0.7500  plane waves:    1220
 k-point ** :   0.4362 0.3138 0.7500  plane waves:    1220
 k-point ** :   0.4337 0.3163 0.7500  plane waves:    1220
 k-point ** :   0.4311 0.3189 0.7500  plane waves:    1220
 k-point ** :   0.4286 0.3214 0.7500  plane waves:    1216
 k-point ** :   0.4260 0.3240 0.7500  plane waves:    1220
 k-point ** :   0.4235 0.3265 0.7500  plane waves:    1220
 k-point ** :   0.4209 0.3291 0.7500  plane waves:    1220
 k-point ** :   0.4184 0.3316 0.7500  plane waves:    1220
 k-point ** :   0.4158 0.3342 0.7500  plane waves:    1220
 k-point ** :   0.4133 0.3367 0.7500  plane waves:    1220
 k-point ** :   0.4107 0.3393 0.7500  plane waves:    1220
 k-point ** :   0.4082 0.3418 0.7500  plane waves:    1220
 k-point ** :   0.4056 0.3444 0.7500  plane waves:    1220
 k-point ** :   0.4031 0.3469 0.7500  plane waves:    1212
 k-point ** :   0.4005 0.3495 0.7500  plane waves:    1212
 k-point ** :   0.3980 0.3520 0.7500  plane waves:    1212
 k-point ** :   0.3954 0.3546 0.7500  plane waves:    1212
 k-point ** :   0.3929 0.3571 0.7500  plane waves:    1212
 k-point ** :   0.3903 0.3597 0.7500  plane waves:    1220
 k-point ** :   0.3878 0.3622 0.7500  plane waves:    1220
 k-point ** :   0.3852 0.3648 0.7500  plane waves:    1220
 k-point ** :   0.3827 0.3673 0.7500  plane waves:    1236
 k-point ** :   0.3801 0.3699 0.7500  plane waves:    1236
 k-point ** :   0.3776 0.3724 0.7500  plane waves:    1236
 k-point ** :   0.3750 0.3750 0.7500  plane waves:    1236
 k-point ** :   0.3750 0.3750 0.7500  plane waves:    1236
 k-point ** :   0.3673 0.3673 0.7347  plane waves:    1236
 k-point ** :   0.3597 0.3597 0.7194  plane waves:    1212
 k-point ** :   0.3520 0.3520 0.7041  plane waves:    1212
 k-point ** :   0.3444 0.3444 0.6888  plane waves:    1212
 k-point ** :   0.3367 0.3367 0.6735  plane waves:    1212
 k-point ** :   0.3291 0.3291 0.6582  plane waves:    1212
 k-point ** :   0.3214 0.3214 0.6429  plane waves:    1212
 k-point ** :   0.3138 0.3138 0.6276  plane waves:    1212
[...]
 k-point ** :   0.5357 0.0714 0.5357  plane waves:    1224
 k-point ** :   0.5332 0.0663 0.5332  plane waves:    1224
 k-point ** :   0.5306 0.0612 0.5306  plane waves:    1224
 k-point ** :   0.5281 0.0561 0.5281  plane waves:    1224
 k-point ** :   0.5255 0.0510 0.5255  plane waves:    1224
 k-point ** :   0.5230 0.0459 0.5230  plane waves:    1224
 k-point ** :   0.5204 0.0408 0.5204  plane waves:    1224
 k-point ** :   0.5179 0.0357 0.5179  plane waves:    1216
 k-point ** :   0.5153 0.0306 0.5153  plane waves:    1232
 k-point ** :   0.5128 0.0255 0.5128  plane waves:    1232
 k-point ** :   0.5102 0.0204 0.5102  plane waves:    1232
 k-point ** :   0.5077 0.0153 0.5077  plane waves:    1240
 k-point ** :   0.5051 0.0102 0.5051  plane waves:    1240
 k-point ** :   0.5026 0.0051 0.5026  plane waves:    1240
 k-point ** :   0.5000 0.0000 0.5000  plane waves:    1240

 maximum and minimum number of plane-waves per node :       170      132

 maximum number of plane-waves:      1240
 maximum index in each direction:
   IXMAX=    5   IYMAX=    5   IZMAX=    5
   IXMIN=   -6   IYMIN=   -6   IZMIN=   -6

 parallel 3D FFT for wavefunctions:
    minimum data exchange during FFTs selected (reduces bandwidth)
 parallel 3D FFT for charge:
    minimum data exchange during FFTs selected (reduces bandwidth)

 initial charge density was supplied:
 number of electron      11.0000000 magnetization       0.0000000      0.0000000      0.0000000
 keeping initial charge density in first step

 Maximum index for augmentation-charges         8779 (set IRDMAX)

 First call to EWALD:  gamma=   0.675
 Maximum number of real-space cells 3x 3x 3
 Maximum number of reciprocal cells 3x 3x 3

--------------------------------------- Iteration      1(   1)  ---------------------------------------

 eigenvalue-minimisations  : 24088
 total energy-change (2. order) : 0.7223114E+02  (-0.5982082E+03)
 number of electron      11.0000000 magnetization       0.0000000      0.0000000      0.0000000
 augmentation part       11.0000000 magnetization       0.0000000      0.0000000      0.0000000

 Free energy of the ion-electron system (eV)
  alpha Z        PSCENC =        64.19470378
  Ewald energy   TEWEN  =      -957.56330713
  -Hartree energ DENC   =      -120.58082829
  -exchange      EXHF   =         0.00000000
  -V(xc)+E(xc)   XCENC  =        14.92599744
  PAW double counting   =      1028.69753109    -1008.13883788
  entropy T*S    EENTRO =        -0.00000010
  eigenvalues    EBANDS =       124.61044363
  atomic energy  EATOM  =       926.08544073
  Solvation  Ediel_sol  =         0.00000000
  free energy    TOTEN  =        72.23114326 eV

  energy without entropy =       72.23114336  energy(sigma->0) =       72.23114331

[...]

 eigenvalue-minimisations  : 29048
 total energy-change (2. order) :-0.7239384E+02  (-0.6617407E+02)
 number of electron      11.0000000 magnetization       0.0000000      0.0000000      0.0000000
 augmentation part       11.0000000 magnetization       0.0000000      0.0000000      0.0000000

[...]

 total charge

# of ion       s       p       d       tot
    1        0.364   0.435   8.769   9.567

 magnetization (x)

[...]

 magnetization (y)

[...]

 magnetization (z)

[...]

--------------------------------------- Iteration      1(   7)  ---------------------------------------

 eigenvalue-minimisations  : 29120
 total energy-change (2. order) :-0.2531272E-07  (-0.2531379E-07)
 number of electron      11.0000000 magnetization       0.0000000      0.0000000      0.0000000
 augmentation part       11.0000000 magnetization       0.0000000      0.0000000      0.0000000

 Free energy of the ion-electron system (eV)
  alpha Z        PSCENC =        64.19470378
  Ewald energy   TEWEN  =      -957.56330713
  -Hartree energ DENC   =      -120.58082829
  -exchange      EXHF   =         0.00000000
  -V(xc)+E(xc)   XCENC  =        14.92599744
  PAW double counting   =      1028.69753109    -1008.13883788
  entropy T*S    EENTRO =        -0.00000000
  eigenvalues    EBANDS =        50.58864698
  atomic energy  EATOM  =       926.08544073
  Solvation  Ediel_sol  =         0.00000000
  free energy    TOTEN  =        -1.79065328 eV

  energy without entropy =       -1.79065328  energy(sigma->0) =       -1.79065328

 average (electrostatic) potential at core
  the test charge radii are     1.2098
  (the norm of the test charge is              1.0000)
       1 -64.9964

 E-fermi :  10.3705     XC(G=0): -12.3538     alpha+bet :-13.0865

 k-point     1 :       0.0000    0.0000    0.0000
  band No.  band energies     occupation
      1      -0.7508      1.00000
      2      -0.7508      1.00000
      3       3.4381      1.00000
      4       3.4381      1.00000
      5       3.4381      1.00000
      6       3.4381      1.00000
      7       4.6445      1.00000
      8       4.6445      1.00000
      9       5.6974      1.00000
     10       5.6974      1.00000
     11       5.6974      1.00000
     12       5.6974      1.00000
     13      23.0523      0.00000
     14      23.0523      0.00000
     15      25.8043      0.00000
     16      25.8043      0.00000
     17      26.9762      0.00000
     18      26.9762      0.00000
     19      26.9762      0.00000
     20      26.9762      0.00000
     21      31.4089      0.00000
     22      31.4089      0.00000
     23      34.2954      0.00000
     24      34.2975      0.00000

[...]

 k-point   500 :       0.5000    0.0000    0.5000
  band No.  band energies     occupation
      1       1.8250      1.00000
      2       1.8250      1.00000
      3       2.0763      1.00000
      4       2.0763      1.00000
      5       6.2514      1.00000
      6       6.2514      1.00000
      7       6.4372      1.00000
      8       6.4372      1.00000
      9       7.4215      1.00000
     10       7.4215      1.00000
     11       9.4918      1.00000
     12       9.4918      1.00000
     13      13.7512      0.00000
     14      13.7512      0.00000
     15      17.6394      0.00000
     16      17.6394      0.00000
     17      18.9442      0.00000
     18      18.9442      0.00000
     19      25.0007      0.00000
     20      25.0007      0.00000
     21      27.4340      0.00000
     22      27.4340      0.00000
     23      35.4880      0.00000
     24      35.4880      0.00000

 soft charge-density along one line, spin component           1
         0         1         2         3         4         5         6         7         8         9
 total charge-density along one line

[...]

 soft charge-density along one line, spin component           4
         0         1         2         3         4         5         6         7         8         9
 total charge-density along one line

------------------------ aborting loop because EDIFF is reached ----------------------------------------

[...]

  FORCE on cell =-STRESS in cart. coord.  units (eV):
  Direction    XX          YY          ZZ          XY          YZ          ZX
  Alpha Z    64.19470    64.19470    64.19470
  Ewald    -319.18778  -319.18778  -319.18778     0.00000    -0.00000    -0.00000
  Hartree    40.38606    40.38606    40.38606     0.00000     0.00000     0.00000
  E(xc)     -49.41308   -49.41308   -49.41308     0.00000     0.00000     0.00000
  Local      45.06067    45.06067    45.06067    -0.00001    -0.00001    -0.00001
  n-local     1.84596    -6.05036    -5.12694    -2.27486    -1.70587    -2.59636
  augment    69.11494    69.11494    69.11494     0.00001     0.00001     0.00001
  Kinetic   151.89644   157.20591   153.09612     1.24094     1.52828     0.76796
  Fock        0.00000     0.00000     0.00000     0.00000     0.00000     0.00000
  Total       1.11123     1.11123     1.11123     0.00000    -0.00000     0.00000
  in kB      98.12110    98.12110    98.12110     0.00000    -0.00000     0.00000

 VOLUME and BASIS-vectors are now :
  energy-cutoff  :      600.00
  volume of cell :       18.14
      direct lattice vectors                 reciprocal lattice vectors
     0.000000000  2.085644245  2.085644245    -0.239734078  0.239734078  0.239734078
     2.085644245  0.000000000  2.085644245     0.239734078 -0.239734078  0.239734078
     2.085644245  2.085644245  0.000000000     0.239734078  0.239734078 -0.239734078

  length of vectors
     2.949546378  2.949546378  2.949546378     0.415231603  0.415231603  0.415231603

 FORCES acting on ions
    electron-ion (+dipol)            ewald-force                    non-local-force                 convergence-correction
   -.138E-13 -.154E-13 -.185E-13   -.259E-15 0.167E-14 -.129E-14   0.662E-23 -.993E-23 -.331E-23   -.401E-07 0.486E-09 0.212E-07
   -.138E-13 -.154E-13 -.185E-13   -.259E-15 0.167E-14 -.129E-14   0.662E-23 -.993E-23 -.331E-23   -.401E-07 0.486E-09 0.212E-07

 POSITION                                       TOTAL-FORCE (eV/Angst)
      0.00000      0.00000      0.00000         0.000000      0.000000      0.000000
    total drift:                               -0.000000      0.000000      0.000000

  FREE ENERGIE OF THE ION-ELECTRON SYSTEM (eV)
  free  energy   TOTEN  =        -1.79065328 eV

  energy  without entropy=       -1.79065328  energy(sigma->0) =       -1.79065328

 Spin-Orbit-Coupling matrix elements

 Ion:    1  E_soc:     -0.6486271
 l=   1
     0.0000000    -0.0368151    -0.0368151
    -0.0368151     0.0000000    -0.0368151
    -0.0368151    -0.0368151     0.0000000
 l=   2
     0.0000000    -0.0168441     0.0000000    -0.0168441    -0.0544453
    -0.0168441     0.0000000    -0.0408340    -0.0168441    -0.0136113
     0.0000000    -0.0408340     0.0000000    -0.0408340     0.0000000
    -0.0168441    -0.0168441    -0.0408340     0.0000000    -0.0136113
    -0.0544453    -0.0136113     0.0000000    -0.0136113     0.0000000
 l=   3
     0.0000000     0.0000000     0.0000000     0.0000000     0.0000000     0.0000000     0.0000000
     0.0000000     0.0000000     0.0000000     0.0000000     0.0000000     0.0000000     0.0000000
     0.0000000     0.0000000     0.0000000     0.0000000     0.0000000     0.0000000     0.0000000
     0.0000000     0.0000000     0.0000000     0.0000000     0.0000000     0.0000000     0.0000000
     0.0000000     0.0000000     0.0000000     0.0000000     0.0000000     0.0000000     0.0000000
     0.0000000     0.0000000     0.0000000     0.0000000     0.0000000     0.0000000     0.0000000
     0.0000000     0.0000000     0.0000000     0.0000000     0.0000000     0.0000000     0.0000000

 total charge

[...]

 magnetization (x)

[...]

 magnetization (y)

[...]

 magnetization (z)

# of ion       s       p       d       tot
    1        0.000   0.000  -0.000   0.000